Cs64 Pb64 Br191
1.0
16.840035 0.000000 16.155961
0.000000 23.527616 0.000000
-16.840035 0.000000 16.155961
Cs Pb Br Cs Pb Br
56 56 168 8 8 23
direct
0.886744 0.876099 0.353656 Cs
0.136051 0.875195 0.603984 Cs
0.887466 0.374703 0.353791 Cs
0.135880 0.375211 0.603463 Cs
0.887039 0.875941 0.854222 Cs
0.135796 0.875190 0.103508 Cs
0.384248 0.875288 0.351814 Cs
0.636672 0.875015 0.604205 Cs
0.886518 0.375096 0.853867 Cs
0.135862 0.374984 0.103721 Cs
0.385725 0.875406 0.853948 Cs
0.636143 0.875096 0.103549 Cs
0.385905 0.374910 0.855649 Cs
0.635738 0.375117 0.102704 Cs
0.103462 0.125038 0.386104 Cs
0.353209 0.125224 0.636159 Cs
0.102601 0.625117 0.386828 Cs
0.103580 0.125139 0.886289 Cs
0.353434 0.125084 0.135817 Cs
0.605378 0.124963 0.385509 Cs
0.853669 0.125483 0.635818 Cs
0.103758 0.625052 0.886014 Cs
0.353949 0.625069 0.135682 Cs
0.857592 0.626582 0.634631 Cs
0.603672 0.125115 0.886226 Cs
0.855168 0.124777 0.135879 Cs
0.602175 0.625327 0.888840 Cs
0.854934 0.625205 0.136838 Cs
0.896306 0.875054 0.113913 Cs
0.146114 0.875170 0.363822 Cs
0.895008 0.375381 0.113804 Cs
0.146069 0.376438 0.365440 Cs
0.895126 0.875301 0.613634 Cs
0.146452 0.875269 0.864151 Cs
0.395481 0.875125 0.113794 Cs
0.648534 0.875400 0.364054 Cs
0.896610 0.375113 0.613128 Cs
0.146352 0.374872 0.863871 Cs
0.395960 0.375129 0.114327 Cs
0.396054 0.875147 0.615865 Cs
0.646235 0.876568 0.864711 Cs
0.646902 0.374991 0.865682 Cs
0.113915 0.125091 0.146129 Cs
0.363545 0.125016 0.395777 Cs
0.114126 0.625100 0.147311 Cs
0.113907 0.125190 0.646446 Cs
0.363826 0.124976 0.896666 Cs
0.613001 0.124342 0.145217 Cs
0.864387 0.125192 0.397680 Cs
0.114010 0.624852 0.646119 Cs
0.362992 0.624856 0.896822 Cs
0.614484 0.624982 0.146120 Cs
0.866159 0.624671 0.393067 Cs
0.614445 0.125055 0.647206 Cs
0.864298 0.125139 0.896424 Cs
0.863434 0.625736 0.894010 Cs
0.750477 0.750489 0.249534 Pb
0.000211 0.750787 0.500093 Pb
0.751538 0.248799 0.248681 Pb
0.000065 0.250209 0.500067 Pb
0.750625 0.751963 0.750496 Pb
0.000054 0.749904 0.000077 Pb
0.249390 0.750693 0.249515 Pb
0.499476 0.753685 0.499212 Pb
0.750193 0.250171 0.750115 Pb
0.000020 0.250328 0.000059 Pb
0.249733 0.750428 0.750363 Pb
0.499868 0.750498 0.000347 Pb
0.249831 0.250013 0.750209 Pb
0.499918 0.250088 0.000212 Pb
0.000282 0.750507 0.249944 Pb
0.250024 0.750163 0.500212 Pb
1.000494 0.250038 0.250042 Pb
0.000339 0.750587 0.750325 Pb
0.249791 0.750277 0.999988 Pb
0.499918 0.750289 0.249823 Pb
0.750499 0.749764 0.498628 Pb
0.999932 0.250151 0.750031 Pb
0.249895 0.250156 1.000038 Pb
0.750171 0.251337 0.500109 Pb
0.499795 0.750356 0.751869 Pb
0.750236 0.750349 0.000036 Pb
0.499918 0.250001 0.751072 Pb
0.750239 0.249953 -0.000052 Pb
1.000041 0.000284 0.249960 Pb
0.249764 0.999926 0.500025 Pb
0.000466 0.499747 0.250084 Pb
0.000003 0.000358 0.750002 Pb
0.249873 0.000257 0.999972 Pb
0.500088 0.999679 0.249957 Pb
0.750198 0.000587 0.500058 Pb
-0.000330 0.500017 0.750191 Pb
0.249647 0.499982 1.000053 Pb
0.744470 0.500065 0.497858 Pb
0.499906 0.000604 0.750242 Pb
0.750190 0.000416 0.000120 Pb
0.499765 0.499424 0.751806 Pb
0.750004 0.501177 0.000173 Pb
0.750255 0.000301 0.249822 Pb
0.000082 0.000311 0.500136 Pb
0.750729 0.498996 0.249855 Pb
-0.002009 0.500599 0.501173 Pb
0.750281 0.000648 0.750214 Pb
0.000087 1.000182 0.000067 Pb
0.249803 0.000498 0.249871 Pb
0.500123 0.001531 0.500170 Pb
0.748818 0.499570 0.748926 Pb
0.000038 0.500354 0.000049 Pb
0.249862 0.000401 0.750136 Pb
0.499825 0.000120 0.000076 Pb
0.249597 0.499829 0.750603 Pb
0.499793 0.500250 0.001489 Pb
0.984800 0.125220 0.231065 Br
0.234573 0.125077 0.480823 Br
0.984428 0.625217 0.233016 Br
0.232878 0.625595 0.480996 Br
0.983907 0.125394 0.730460 Br
0.234191 0.125277 0.980919 Br
0.483660 0.124554 0.231093 Br
0.734482 0.125821 0.482025 Br
0.985182 0.625451 0.731705 Br
0.233983 0.625193 0.981415 Br
0.485132 0.624845 0.230745 Br
0.484043 0.125144 0.730620 Br
0.734345 0.125417 0.979881 Br
0.734331 0.625682 0.979172 Br
0.230711 0.875502 0.234240 Br
0.480560 0.870344 0.484377 Br
0.230175 0.374993 0.235112 Br
0.231181 0.875245 0.734234 Br
0.480434 0.875144 0.984403 Br
0.731078 0.875162 0.233614 Br
0.980773 0.875493 0.484584 Br
0.230970 0.375242 0.733608 Br
0.481530 0.375392 0.985386 Br
0.733923 0.374223 0.230012 Br
0.982638 0.375492 0.484319 Br
0.730152 0.875903 0.734251 Br
0.981159 0.875174 0.984769 Br
0.980309 0.375443 0.984808 Br
0.771724 0.124684 0.266307 Br
0.018786 0.125357 0.516047 Br
0.766871 0.624717 0.265959 Br
0.017057 0.625637 0.516707 Br
0.769659 0.125681 0.765695 Br
0.018865 0.125353 0.015873 Br
0.269537 0.125218 0.265767 Br
0.518798 0.124870 0.515115 Br
0.766873 0.625584 0.761377 Br
0.020172 0.625239 0.016288 Br
0.269575 0.125278 0.765927 Br
0.518405 0.125115 0.015399 Br
0.267069 0.625198 0.767580 Br
0.518050 0.625438 0.017628 Br
0.016086 0.875366 0.269168 Br
0.267088 0.874953 0.520186 Br
0.016703 0.375077 0.269446 Br
0.016208 0.875473 0.769452 Br
0.265466 0.875261 0.019064 Br
0.515869 0.874521 0.272277 Br
0.764341 0.875066 0.517925 Br
0.015794 0.375372 0.769317 Br
0.265875 0.375223 0.019422 Br
0.763481 0.376217 0.522170 Br
0.515222 0.875025 0.768544 Br
0.765607 0.875395 0.019140 Br
0.515902 0.374932 0.771621 Br
0.765055 0.375784 0.017820 Br
0.873976 0.981971 0.224496 Br
0.124180 0.982010 0.474654 Br
0.874498 0.482513 0.224913 Br
0.125792 0.484061 0.476749 Br
0.873843 0.982112 0.724506 Br
0.123947 0.982233 0.974539 Br
0.374077 0.981879 0.224737 Br
0.623309 0.982175 0.474741 Br
0.872313 0.483413 0.722548 Br
0.123909 0.481950 0.974349 Br
0.374034 0.482204 0.225993 Br
0.374050 0.982378 0.724638 Br
0.623782 0.982822 0.975385 Br
0.623814 0.483020 0.975491 Br
0.974585 0.018076 0.374092 Br
0.224565 0.018102 0.623876 Br
0.975864 0.516809 0.374455 Br
0.225994 0.518193 0.624119 Br
0.974581 0.018074 0.873907 Br
0.224531 0.018042 0.124032 Br
0.474433 0.017743 0.374738 Br
0.724401 0.017837 0.623935 Br
0.974035 0.518132 0.873902 Br
0.224318 0.517628 0.123941 Br
0.474578 0.017882 0.873811 Br
0.724667 0.018285 0.123996 Br
0.474310 0.518090 0.875445 Br
0.725786 0.518860 0.121794 Br
0.025592 0.767876 0.126149 Br
0.275505 0.767875 0.376210 Br
0.025466 0.267987 0.126150 Br
0.025097 0.768149 0.626159 Br
0.275517 0.768121 0.876000 Br
0.524708 0.768496 0.127010 Br
0.775915 0.769405 0.375302 Br
0.025590 0.268085 0.626043 Br
0.275346 0.268000 0.876078 Br
0.525302 0.268068 0.126427 Br
0.776203 0.267567 0.375925 Br
0.527631 0.764428 0.625694 Br
0.777084 0.768262 0.875687 Br
0.775562 0.268417 0.876019 Br
0.126317 0.231963 0.275742 Br
0.376522 0.232395 0.525243 Br
0.126179 0.732368 0.276066 Br
0.125955 0.232073 0.775514 Br
0.376065 0.232316 0.025553 Br
0.626386 0.229856 0.273189 Br
0.875789 0.233638 0.525732 Br
0.126085 0.732437 0.775464 Br
0.376089 0.732320 0.025560 Br
0.876021 0.733618 0.523869 Br
0.626039 0.232025 0.775448 Br
0.875985 0.232220 0.025490 Br
0.626144 0.735632 0.781239 Br
0.875976 0.731926 0.025528 Br
0.874063 0.767890 0.224577 Br
0.125288 0.768174 0.475128 Br
0.874583 0.267559 0.223700 Br
0.124144 0.267837 0.474531 Br
0.873684 0.768243 0.724728 Br
0.123947 0.768067 0.974432 Br
0.374072 0.767953 0.225060 Br
0.623151 0.765111 0.472677 Br
0.873756 0.269308 0.724508 Br
0.123924 0.268111 0.974541 Br
0.374151 0.267934 0.224689 Br
0.374316 0.767661 0.724780 Br
0.623776 0.768217 0.974764 Br
0.623833 0.267596 0.974995 Br
0.974546 0.232154 0.374081 Br
0.224816 0.232256 0.623860 Br
0.975530 0.733330 0.374190 Br
0.224666 0.731997 0.623969 Br
0.974523 0.232262 0.873896 Br
0.224487 0.232166 0.124027 Br
0.474515 0.232195 0.374633 Br
0.724290 0.232222 0.623895 Br
0.974638 0.732241 0.873927 Br
0.224374 0.732511 0.123949 Br
0.474379 0.231898 0.874171 Br
0.724859 0.230286 0.123739 Br
0.473302 0.732139 0.874400 Br
0.724891 0.731996 0.123562 Br
0.126193 0.018055 0.275631 Br
0.376605 0.017732 0.525613 Br
0.126272 0.518345 0.276319 Br
0.126110 0.018200 0.775499 Br
0.376039 0.017944 0.025563 Br
0.626057 0.017972 0.275402 Br
0.875871 0.017822 0.525709 Br
0.125184 0.517751 0.775163 Br
0.375982 0.517826 0.025657 Br
0.874641 0.516919 0.524347 Br
0.626001 0.018216 0.775486 Br
0.876029 0.017901 0.025402 Br
0.625705 0.517946 0.778825 Br
0.875961 0.518953 0.024783 Br
0.025434 0.982257 0.126137 Br
0.275419 0.982135 0.376206 Br
0.025448 0.482275 0.126138 Br
0.025421 0.982085 0.626043 Br
0.275461 0.982251 0.876040 Br
0.525181 0.981725 0.126418 Br
0.775495 0.982536 0.376200 Br
0.025205 0.482207 0.626359 Br
0.275253 0.481938 0.876135 Br
0.524595 0.481939 0.128338 Br
0.775056 0.479901 0.373725 Br
0.525467 0.981985 0.625484 Br
0.775497 0.982173 0.876022 Br
0.775402 0.483581 0.871215 Br
0.383896 0.374893 0.352125 Cs
0.634606 0.373013 0.605233 Cs
0.608752 0.624634 0.378943 Cs
0.350631 0.624758 0.639207 Cs
0.392494 0.374871 0.615592 Cs
0.648935 0.369329 0.358064 Cs
0.620281 0.630513 0.663750 Cs
0.357762 0.625111 0.391089 Cs
0.249750 0.249864 0.249918 Pb
0.500028 0.248649 0.500089 Pb
0.499984 0.249590 0.249746 Pb
0.249601 0.249956 0.499819 Pb
0.499906 0.499893 0.251312 Pb
0.250100 0.500873 0.500058 Pb
0.249370 0.499608 0.249566 Pb
0.501622 0.495009 0.500146 Pb
0.483460 0.624820 0.731467 Br
0.735858 0.625465 0.474484 Br
0.728918 0.375551 0.734228 Br
0.478676 0.379106 0.484770 Br
0.266224 0.625288 0.262438 Br
0.514660 0.374782 0.271114 Br
0.265543 0.375722 0.517872 Br
0.373820 0.482231 0.726320 Br
0.622406 0.478884 0.462090 Br
0.476167 0.524727 0.377715 Br
0.523753 0.266587 0.625676 Br
0.275402 0.267770 0.376163 Br
0.626060 0.733727 0.273784 Br
0.378168 0.727959 0.525185 Br
0.373990 0.268093 0.725731 Br
0.623160 0.267962 0.474048 Br
0.476019 0.726332 0.376204 Br
0.725832 0.733288 0.623266 Br
0.626150 0.515861 0.272617 Br
0.380568 0.523748 0.523273 Br
0.522518 0.479633 0.626824 Br
0.275378 0.482754 0.376163 Br
0.701972 0.521452 0.611022 Br
