Cs64 Pb64 Br191
1.0
16.840035 0.000000 16.155961
0.000000 23.527616 0.000000
-16.840035 0.000000 16.155961
Cs Pb Br Cs Pb Br
56 56 168 8 8 23
direct
0.885389 0.874468 0.353599 Cs
0.136122 0.875102 0.603971 Cs
0.886162 0.375231 0.353851 Cs
0.136311 0.374872 0.603448 Cs
0.886551 0.875265 0.853858 Cs
0.135649 0.875082 0.102749 Cs
0.385553 0.877349 0.353554 Cs
0.634070 0.873130 0.603792 Cs
0.886276 0.374749 0.853603 Cs
0.136310 0.374813 0.104247 Cs
0.386324 0.875091 0.852909 Cs
0.635985 0.875120 0.103961 Cs
0.386159 0.374672 0.853604 Cs
0.635616 0.375817 0.103492 Cs
0.103812 0.124980 0.386070 Cs
0.352990 0.124751 0.635825 Cs
0.102578 0.625044 0.386014 Cs
0.103380 0.124962 0.886033 Cs
0.353936 0.124834 0.135734 Cs
0.603409 0.125022 0.385261 Cs
0.853886 0.124844 0.636456 Cs
0.103981 0.625070 0.886092 Cs
0.353109 0.625201 0.135172 Cs
0.853392 0.624785 0.634926 Cs
0.603916 0.125196 0.886194 Cs
0.853668 0.124973 0.135833 Cs
0.603857 0.625550 0.888780 Cs
0.853184 0.625195 0.137352 Cs
0.896721 0.875103 0.114012 Cs
0.145617 0.875187 0.363579 Cs
0.896630 0.374904 0.113794 Cs
0.146109 0.374760 0.364096 Cs
0.896717 0.875335 0.614066 Cs
0.146297 0.875124 0.863935 Cs
0.396490 0.875849 0.113027 Cs
0.645979 0.875538 0.362694 Cs
0.898709 0.374601 0.614654 Cs
0.146275 0.374860 0.863897 Cs
0.393372 0.375424 0.114336 Cs
0.397089 0.874380 0.615208 Cs
0.645574 0.875290 0.863985 Cs
0.646476 0.374904 0.864664 Cs
0.113422 0.124760 0.146048 Cs
0.362607 0.123756 0.396553 Cs
0.114356 0.624806 0.146616 Cs
0.113956 0.124917 0.646459 Cs
0.364086 0.125086 0.896577 Cs
0.614102 0.125195 0.146059 Cs
0.864272 0.124891 0.396453 Cs
0.113689 0.624995 0.646089 Cs
0.363472 0.625681 0.896790 Cs
0.613734 0.625822 0.146180 Cs
0.865000 0.624853 0.396993 Cs
0.614321 0.125044 0.646645 Cs
0.864189 0.124940 0.896707 Cs
0.863555 0.625103 0.895614 Cs
0.750277 0.751184 0.248886 Pb
0.000198 0.750451 0.500132 Pb
0.750252 0.249766 0.249861 Pb
0.000087 0.249594 0.500028 Pb
0.750366 0.751287 0.750394 Pb
0.000037 0.749721 0.000036 Pb
0.249432 0.750987 0.249461 Pb
0.499397 0.749633 0.495564 Pb
0.750334 0.249376 0.750368 Pb
0.000051 0.250084 -0.000023 Pb
0.249740 0.750246 0.750271 Pb
0.499841 0.750606 -0.000013 Pb
0.249951 0.249743 0.750239 Pb
0.499934 0.250478 0.000173 Pb
0.000295 0.750046 0.249938 Pb
0.249769 0.750265 0.500078 Pb
0.999818 0.249763 0.249871 Pb
0.000040 0.749845 0.750074 Pb
0.249847 0.750403 0.999980 Pb
0.497913 0.750739 0.249404 Pb
0.750908 0.751101 0.501118 Pb
0.000041 0.249779 0.750094 Pb
0.249842 0.249727 0.999691 Pb
0.750255 0.248982 0.500123 Pb
0.500124 0.749532 0.749850 Pb
0.750312 0.750404 -0.000042 Pb
0.499814 0.249986 0.749882 Pb
0.750155 0.249945 0.000090 Pb
0.999934 0.000051 0.249976 Pb
0.249648 0.999393 0.500219 Pb
0.000314 0.499728 0.249995 Pb
0.000047 0.999886 0.750056 Pb
0.249901 0.000052 0.999846 Pb
0.499912 0.000587 0.249575 Pb
0.750082 0.000347 0.500118 Pb
0.000121 0.500107 0.750164 Pb
0.249664 0.499963 0.999709 Pb
0.751181 0.496650 0.501410 Pb
0.499957 0.000559 0.750073 Pb
0.750088 0.000048 0.000030 Pb
0.500408 0.500019 0.751523 Pb
0.750487 0.500030 0.000140 Pb
0.750242 0.000629 0.249971 Pb
-0.000020 -0.000010 0.499997 Pb
0.750569 0.499049 0.249068 Pb
0.000282 0.499530 0.500118 Pb
0.750088 -0.000018 0.750080 Pb
-0.000010 0.999920 -0.000007 Pb
0.249634 0.999777 0.249555 Pb
0.500322 0.001239 0.500371 Pb
0.750544 0.499243 0.750688 Pb
0.000034 0.500123 0.000031 Pb
0.249961 0.000116 0.750166 Pb
0.500065 0.000426 0.000007 Pb
0.249808 0.499680 0.750275 Pb
0.499617 0.500344 0.000711 Pb
0.983996 0.124959 0.230506 Br
0.234040 0.124280 0.482145 Br
0.984571 0.624794 0.231033 Br
0.231947 0.625191 0.481310 Br
0.984503 0.124869 0.730703 Br
0.234254 0.124957 0.980146 Br
0.485005 0.126435 0.230511 Br
0.733478 0.124656 0.479561 Br
0.983903 0.624888 0.729988 Br
0.234342 0.625074 0.981382 Br
0.483617 0.625301 0.228872 Br
0.484081 0.125401 0.729127 Br
0.734347 0.125124 0.980731 Br
0.734788 0.625127 0.981235 Br
0.229239 0.875083 0.233483 Br
0.484880 0.868226 0.487512 Br
0.233121 0.374327 0.235909 Br
0.230997 0.874953 0.734383 Br
0.480906 0.875438 0.983482 Br
0.731783 0.875623 0.234152 Br
0.980468 0.874986 0.483788 Br
0.230986 0.374885 0.734100 Br
0.479713 0.375803 0.985580 Br
0.730913 0.375211 0.233384 Br
0.981630 0.374694 0.483912 Br
0.729067 0.875325 0.733962 Br
0.980987 0.874783 0.984514 Br
0.980702 0.375119 0.984279 Br
0.769801 0.125537 0.266051 Br
0.019717 0.124770 0.515717 Br
0.764376 0.625314 0.268693 Br
0.017534 0.624924 0.515742 Br
0.769715 0.124802 0.766137 Br
0.019005 0.124993 0.015470 Br
0.270009 0.124239 0.265307 Br
0.517825 0.124155 0.515236 Br
0.766948 0.625254 0.763467 Br
0.020141 0.624877 0.015895 Br
0.270008 0.124960 0.765815 Br
0.519270 0.125750 0.015666 Br
0.267463 0.624876 0.767488 Br
0.518374 0.625162 0.016876 Br
0.014850 0.874904 0.269549 Br
0.267082 0.874339 0.520957 Br
0.015633 0.374834 0.269633 Br
0.015726 0.874785 0.769085 Br
0.265698 0.875139 0.019319 Br
0.514601 0.875814 0.267849 Br
0.764512 0.875236 0.520264 Br
0.015557 0.375009 0.768930 Br
0.264888 0.374946 0.018689 Br
0.767276 0.373326 0.521361 Br
0.515711 0.874931 0.765568 Br
0.765753 0.875097 0.020187 Br
0.516463 0.375228 0.768414 Br
0.765482 0.375188 0.019845 Br
0.873824 0.982158 0.224587 Br
0.124100 0.981757 0.474691 Br
0.873984 0.482283 0.224392 Br
0.124946 0.482152 0.474581 Br
0.873814 0.981974 0.724582 Br
0.123963 0.982139 0.974444 Br
0.373916 0.982221 0.224459 Br
0.623426 0.982093 0.474511 Br
0.873692 0.482214 0.724565 Br
0.123864 0.482013 0.974524 Br
0.374669 0.482170 0.228405 Br
0.374039 0.982124 0.724373 Br
0.623854 0.982174 0.974663 Br
0.623586 0.482129 0.975826 Br
0.974605 0.017923 0.373965 Br
0.224505 0.017870 0.623987 Br
0.974476 0.517728 0.374019 Br
0.224715 0.517880 0.623846 Br
0.974535 0.017844 0.873857 Br
0.224488 0.018126 0.123898 Br
0.474523 0.017612 0.374425 Br
0.724371 0.018110 0.623811 Br
0.974522 0.518095 0.873882 Br
0.225027 0.517009 0.124031 Br
0.474752 0.017985 0.873630 Br
0.724510 0.018126 0.124006 Br
0.474858 0.517751 0.877724 Br
0.724136 0.518472 0.124189 Br
0.025517 0.767870 0.126182 Br
0.274736 0.770110 0.376100 Br
0.025487 0.267996 0.126137 Br
0.025589 0.768031 0.626035 Br
0.275602 0.768155 0.876027 Br
0.524504 0.768512 0.125655 Br
0.773283 0.765242 0.376358 Br
0.025667 0.267852 0.626028 Br
0.275677 0.268020 0.876151 Br
0.524500 0.270313 0.126522 Br
0.775615 0.268158 0.376211 Br
0.527213 0.759157 0.623320 Br
0.775868 0.768226 0.876219 Br
0.775433 0.267891 0.876157 Br
0.125997 0.231882 0.275194 Br
0.376356 0.232203 0.525235 Br
0.126057 0.732197 0.275737 Br
0.126243 0.232014 0.775529 Br
0.376112 0.232182 0.025435 Br
0.626020 0.232399 0.275502 Br
0.875840 0.231663 0.525489 Br
0.126039 0.732166 0.775411 Br
0.376132 0.732325 0.025223 Br
0.876262 0.734511 0.526197 Br
0.625968 0.232063 0.775046 Br
0.876008 0.232166 0.025515 Br
0.626105 0.732715 0.777953 Br
0.876059 0.731750 0.025768 Br
0.873913 0.767607 0.224394 Br
0.124628 0.768152 0.474716 Br
0.873801 0.268115 0.224536 Br
0.123958 0.267796 0.474712 Br
0.873649 0.768003 0.724410 Br
0.123884 0.767945 0.974330 Br
0.373080 0.768335 0.222224 Br
0.623625 0.762931 0.470291 Br
0.873910 0.267757 0.724537 Br
0.123903 0.267951 0.974525 Br
0.373821 0.266534 0.223623 Br
0.374070 0.767451 0.724533 Br
0.623931 0.767989 0.974794 Br
0.623761 0.268126 0.974851 Br
0.974595 0.232011 0.373933 Br
0.224441 0.232101 0.624189 Br
0.974446 0.732144 0.374015 Br
0.224598 0.731975 0.623844 Br
0.974508 0.232115 0.873861 Br
0.224127 0.231840 0.123758 Br
0.473326 0.230283 0.373962 Br
0.724519 0.231851 0.623876 Br
0.974482 0.731911 0.873843 Br
0.223940 0.732603 0.123857 Br
0.474817 0.232500 0.873571 Br
0.724450 0.232136 0.124043 Br
0.474855 0.732158 0.873145 Br
0.724648 0.731909 0.123970 Br
0.126099 0.018108 0.275442 Br
0.376619 0.016524 0.525706 Br
0.126230 0.516894 0.276587 Br
0.126175 0.017962 0.775459 Br
0.376202 0.018006 0.025318 Br
0.626023 0.017884 0.275446 Br
0.875930 0.017997 0.525456 Br
0.126169 0.517777 0.775477 Br
0.376088 0.517848 0.025440 Br
0.876488 0.514811 0.526174 Br
0.625966 0.018265 0.775419 Br
0.876065 0.017878 0.025449 Br
0.626140 0.517663 0.778981 Br
0.875991 0.518348 0.025984 Br
0.025431 0.982083 0.126134 Br
0.274648 0.982339 0.376254 Br
0.025734 0.481982 0.126213 Br
0.025455 0.982009 0.626032 Br
0.275692 0.981950 0.876102 Br
0.525502 0.982455 0.126139 Br
0.775304 0.981840 0.376181 Br
0.025848 0.482034 0.626086 Br
0.275724 0.481897 0.875979 Br
0.521419 0.482162 0.134557 Br
0.774100 0.483405 0.376505 Br
0.525683 0.982416 0.625554 Br
0.775351 0.981838 0.876084 Br
0.776052 0.482174 0.876556 Br
0.378179 0.368448 0.349110 Cs
0.638165 0.374605 0.606972 Cs
0.635644 0.628024 0.377785 Cs
0.350374 0.625199 0.638982 Cs
0.394571 0.375117 0.613778 Cs
0.648877 0.373379 0.363897 Cs
0.621028 0.624970 0.657820 Cs
0.357047 0.629120 0.392443 Cs
0.249333 0.248329 0.249243 Pb
0.499613 0.249851 0.499285 Pb
0.500134 0.251024 0.250113 Pb
0.249505 0.249458 0.500490 Pb
0.500273 0.501818 0.253166 Pb
0.250156 0.500641 0.500106 Pb
0.249603 0.499939 0.250070 Pb
0.500486 0.495848 0.501192 Pb
0.484021 0.624555 0.731235 Br
0.742576 0.623970 0.491838 Br
0.731658 0.374702 0.736257 Br
0.475825 0.377595 0.477434 Br
0.266184 0.625189 0.262628 Br
0.513581 0.376698 0.277053 Br
0.265848 0.375020 0.517226 Br
0.374515 0.482171 0.724743 Br
0.624091 0.478274 0.476726 Br
0.724089 0.514792 0.624626 Br
0.523963 0.270575 0.624502 Br
0.272185 0.263556 0.376155 Br
0.625186 0.737387 0.271190 Br
0.377557 0.728565 0.524887 Br
0.374016 0.268265 0.724356 Br
0.623205 0.268107 0.475140 Br
0.466711 0.739996 0.372518 Br
0.723189 0.734664 0.624230 Br
0.626297 0.514930 0.273968 Br
0.377719 0.521428 0.525751 Br
0.528695 0.488217 0.628487 Br
0.277962 0.484117 0.376271 Br
0.496287 0.569672 0.403903 Br
