Cs4 Pb4 Br12                            
   1.0000000000000000     
     8.8410184777726180    0.0000000000000000    0.0000000000000000
     0.0000000000000000   11.8214458624860086    0.0000000000000000
     0.0000000000000000    0.0000000000000000    7.7098618141400426
   Cs   Pb   Br
     4     4    12
Direct
  0.0768251742838260  0.2500000000000000  0.4668961864992127
  0.4231748257161883  0.7500000000000000  0.9668961864992127
  0.5768251742838189  0.2500000000000000  0.0331038135007873
  0.9231748257161811  0.7500000000000000  0.5331038135007873
  0.0000000000000000  0.0000000000000000  0.0000000000000000
  0.5000000000000000  0.0000000000000000  0.5000000000000000
  0.5000000000000000  0.5000000000000000  0.5000000000000000
  0.0000000000000000  0.5000000000000000  0.0000000000000000
  0.5125708202160126  0.7500000000000000  0.4376201525994645
  0.9874291797839874  0.2500000000000000  0.9376201525994645
  0.0125708202160126  0.7500000000000000  0.0623798474005355
  0.4874291797839874  0.2500000000000000  0.5623798474005355
  0.3001852381704992  0.4656131556284464  0.1865105379863934
  0.1998147618295079  0.5343868443715465  0.6865105379863863
  0.8001852381704992  0.0343868443715465  0.3134894620136066
  0.6998147618295008  0.9656131556284535  0.8134894620136137
  0.3001852381704992  0.0343868443715465  0.1865105379863934
  0.1998147618295079  0.9656131556284535  0.6865105379863863
  0.6998147618295008  0.5343868443715465  0.8134894620136137
  0.8001852381704992  0.4656131556284464  0.3134894620136066

  0.00000000E+00  0.00000000E+00  0.00000000E+00
  0.00000000E+00  0.00000000E+00  0.00000000E+00
  0.00000000E+00  0.00000000E+00  0.00000000E+00
  0.00000000E+00  0.00000000E+00  0.00000000E+00
  0.00000000E+00  0.00000000E+00  0.00000000E+00
  0.00000000E+00  0.00000000E+00  0.00000000E+00
  0.00000000E+00  0.00000000E+00  0.00000000E+00
  0.00000000E+00  0.00000000E+00  0.00000000E+00
  0.00000000E+00  0.00000000E+00  0.00000000E+00
  0.00000000E+00  0.00000000E+00  0.00000000E+00
  0.00000000E+00  0.00000000E+00  0.00000000E+00
  0.00000000E+00  0.00000000E+00  0.00000000E+00
  0.00000000E+00  0.00000000E+00  0.00000000E+00
  0.00000000E+00  0.00000000E+00  0.00000000E+00
  0.00000000E+00  0.00000000E+00  0.00000000E+00
  0.00000000E+00  0.00000000E+00  0.00000000E+00
  0.00000000E+00  0.00000000E+00  0.00000000E+00
  0.00000000E+00  0.00000000E+00  0.00000000E+00
  0.00000000E+00  0.00000000E+00  0.00000000E+00
  0.00000000E+00  0.00000000E+00  0.00000000E+00
