Cs4 Pb4 Br12                            
   1.0000000000000000     
     8.4565893672990420    0.0000000000000000   -0.0000000000000000
     0.0000000000000000   11.6364085135933344    0.0000000000000000
     0.0000000000000000    0.0000000000000000    7.4924717499867350
   Cs   Pb   Br
     4     4    12
Direct
  0.0898525297729904  0.2500000000000000  0.4604149181590671
  0.4101474702270096  0.7500000000000000  0.9604149181590671
  0.5898525297729904  0.2500000000000000  0.0395850818409329
  0.9101474702270096  0.7500000000000000  0.5395850818409329
  0.0000000000000000  0.0000000000000000  0.0000000000000000
  0.5000000000000000  0.0000000000000000  0.5000000000000000
  0.5000000000000000  0.5000000000000000  0.5000000000000000
  0.0000000000000000  0.5000000000000000  0.0000000000000000
  0.4991405995767124  0.7500000000000000  0.4289261449059651
  0.0008594004232876  0.2500000000000000  0.9289261449059651
  0.9991405995767124  0.7500000000000000  0.0710738550940349
  0.5008594004232876  0.2500000000000000  0.5710738550940349
  0.3132635907746959  0.4626616292852077  0.1701644229531780
  0.1867364092253041  0.5373383707147923  0.6701644229531780
  0.8132635907746959  0.0373383707147923  0.3298355770468220
  0.6867364092253041  0.9626616292852077  0.8298355770468220
  0.3132635907746959  0.0373383707147923  0.1701644229531780
  0.1867364092253041  0.9626616292852077  0.6701644229531780
  0.6867364092253041  0.5373383707147923  0.8298355770468220
  0.8132635907746959  0.4626616292852077  0.3298355770468220

  0.00000000E+00  0.00000000E+00  0.00000000E+00
  0.00000000E+00  0.00000000E+00  0.00000000E+00
  0.00000000E+00  0.00000000E+00  0.00000000E+00
  0.00000000E+00  0.00000000E+00  0.00000000E+00
  0.00000000E+00  0.00000000E+00  0.00000000E+00
  0.00000000E+00  0.00000000E+00  0.00000000E+00
  0.00000000E+00  0.00000000E+00  0.00000000E+00
  0.00000000E+00  0.00000000E+00  0.00000000E+00
  0.00000000E+00  0.00000000E+00  0.00000000E+00
  0.00000000E+00  0.00000000E+00  0.00000000E+00
  0.00000000E+00  0.00000000E+00  0.00000000E+00
  0.00000000E+00  0.00000000E+00  0.00000000E+00
  0.00000000E+00  0.00000000E+00  0.00000000E+00
  0.00000000E+00  0.00000000E+00  0.00000000E+00
  0.00000000E+00  0.00000000E+00  0.00000000E+00
  0.00000000E+00  0.00000000E+00  0.00000000E+00
  0.00000000E+00  0.00000000E+00  0.00000000E+00
  0.00000000E+00  0.00000000E+00  0.00000000E+00
  0.00000000E+00  0.00000000E+00  0.00000000E+00
  0.00000000E+00  0.00000000E+00  0.00000000E+00
