Cs4 Pb4 Br12                            
   1.0000000000000000     
     8.4565893672990420    0.0000000000000000   -0.0000000000000000
     0.0000000000000000   11.6364085135933344    0.0000000000000000
     0.0000000000000000    0.0000000000000000    7.4924717499867350
   Cs   Pb   Br
     4     4    12
Direct
  0.0898525297729922  0.2500000000000000  0.4604149181590652
  0.4101474702270078  0.7500000000000000  0.9604149181590652
  0.5898525297729923  0.2500000000000000  0.0395850818409348
  0.9101474702270077  0.7500000000000000  0.5395850818409348
 -0.0000000000000000  0.0000000000000000  0.0000000000000000
  0.5000000000000000  0.0000000000000000  0.5000000000000000
  0.5000000000000000  0.5000000000000000  0.5000000000000000
 -0.0000000000000000  0.5000000000000000  0.0000000000000000
  0.4991405995767110  0.7500000000000000  0.4289261449059660
  0.0008594004232891  0.2500000000000000  0.9289261449059659
  0.9991405995767108  0.7500000000000000  0.0710738550940341
  0.5008594004232892  0.2500000000000000  0.5710738550940341
  0.3132635907746944  0.4626616292852060  0.1701644229531750
  0.1867364092253057  0.5373383707147938  0.6701644229531748
  0.8132635907746940  0.0373383707147939  0.3298355770468249
  0.6867364092253060  0.9626616292852062  0.8298355770468252
  0.3132635907746944  0.0373383707147939  0.1701644229531750
  0.1867364092253057  0.9626616292852062  0.6701644229531748
  0.6867364092253060  0.5373383707147938  0.8298355770468252
  0.8132635907746940  0.4626616292852060  0.3298355770468249

  0.00000000E+00  0.00000000E+00  0.00000000E+00
  0.00000000E+00  0.00000000E+00  0.00000000E+00
  0.00000000E+00  0.00000000E+00  0.00000000E+00
  0.00000000E+00  0.00000000E+00  0.00000000E+00
  0.00000000E+00  0.00000000E+00  0.00000000E+00
  0.00000000E+00  0.00000000E+00  0.00000000E+00
  0.00000000E+00  0.00000000E+00  0.00000000E+00
  0.00000000E+00  0.00000000E+00  0.00000000E+00
  0.00000000E+00  0.00000000E+00  0.00000000E+00
  0.00000000E+00  0.00000000E+00  0.00000000E+00
  0.00000000E+00  0.00000000E+00  0.00000000E+00
  0.00000000E+00  0.00000000E+00  0.00000000E+00
  0.00000000E+00  0.00000000E+00  0.00000000E+00
  0.00000000E+00  0.00000000E+00  0.00000000E+00
  0.00000000E+00  0.00000000E+00  0.00000000E+00
  0.00000000E+00  0.00000000E+00  0.00000000E+00
  0.00000000E+00  0.00000000E+00  0.00000000E+00
  0.00000000E+00  0.00000000E+00  0.00000000E+00
  0.00000000E+00  0.00000000E+00  0.00000000E+00
  0.00000000E+00  0.00000000E+00  0.00000000E+00
