Cs4 Pb4 Br12                            
   1.0000000000000000     
     8.6726181258150437    0.0000000000000000    0.0000000000000000
     0.0000000000000000   12.1167220181788018    0.0000000000000000
     0.0000000000000000    0.0000000000000000    7.7326917651955185
   Cs   Pb   Br
     4     4    12
Direct
  0.0728633065290651  0.2500000000000000  0.4702429026790398
  0.4271366934709349  0.7500000000000000  0.9702429026790398
  0.5728633065290651  0.2500000000000000  0.0297570973209602
  0.9271366934709349  0.7500000000000000  0.5297570973209602
  0.0000000000000000  0.0000000000000000  0.0000000000000000
  0.5000000000000000  0.0000000000000000  0.5000000000000000
  0.5000000000000000  0.5000000000000000  0.5000000000000000
  0.0000000000000000  0.5000000000000000  0.0000000000000000
  0.5069173541174194  0.7500000000000000  0.4496963808341405
  0.9930826458825806  0.2500000000000000  0.9496963808341405
  0.0069173541174194  0.7500000000000000  0.0503036191658595
  0.4930826458825806  0.2500000000000000  0.5503036191658595
  0.3040100258644998  0.4682251988477546  0.1839475710212568
  0.1959899741355002  0.5317748011522454  0.6839475710212568
  0.8040100258644998  0.0317748011522454  0.3160524289787432
  0.6959899741355002  0.9682251988477546  0.8160524289787432
  0.3040100258644998  0.0317748011522454  0.1839475710212568
  0.1959899741355002  0.9682251988477546  0.6839475710212568
  0.6959899741355002  0.5317748011522454  0.8160524289787432
  0.8040100258644998  0.4682251988477546  0.3160524289787432

  0.00000000E+00  0.00000000E+00  0.00000000E+00
  0.00000000E+00  0.00000000E+00  0.00000000E+00
  0.00000000E+00  0.00000000E+00  0.00000000E+00
  0.00000000E+00  0.00000000E+00  0.00000000E+00
  0.00000000E+00  0.00000000E+00  0.00000000E+00
  0.00000000E+00  0.00000000E+00  0.00000000E+00
  0.00000000E+00  0.00000000E+00  0.00000000E+00
  0.00000000E+00  0.00000000E+00  0.00000000E+00
  0.00000000E+00  0.00000000E+00  0.00000000E+00
  0.00000000E+00  0.00000000E+00  0.00000000E+00
  0.00000000E+00  0.00000000E+00  0.00000000E+00
  0.00000000E+00  0.00000000E+00  0.00000000E+00
  0.00000000E+00  0.00000000E+00  0.00000000E+00
  0.00000000E+00  0.00000000E+00  0.00000000E+00
  0.00000000E+00  0.00000000E+00  0.00000000E+00
  0.00000000E+00  0.00000000E+00  0.00000000E+00
  0.00000000E+00  0.00000000E+00  0.00000000E+00
  0.00000000E+00  0.00000000E+00  0.00000000E+00
  0.00000000E+00  0.00000000E+00  0.00000000E+00
  0.00000000E+00  0.00000000E+00  0.00000000E+00
