Cs8 Pb8 Br23                            
   1.0000000000000000     
     8.4564889999999995    0.0000000000000000    8.0403009999999995
     0.0000000000000000   11.7298469999999995    0.0000000000000000
    -8.4564889999999995    0.0000000000000000    8.0403009999999995
   Cs   Pb   Br
     8     8    23
Direct
  0.2644510000000011  0.2405759999999972  0.2034459999999996
  0.7777209999999997  0.2387000000000015  0.7201390000000032
  0.7193729999999974  0.7661829999999981  0.2632400000000032
  0.2043880000000016  0.7546010000000010  0.7785039999999981
  0.2865370000000027  0.2435630000000018  0.7283120000000025
  0.7963269999999980  0.2458889999999982  0.2255899999999968
  0.7287540000000021  0.7538690000000017  0.7942850000000021
  0.2250950000000032  0.7567000000000021  0.2883319999999969
  0.0003600000000006  0.9991449999999986  0.9994299999999967
  0.4998640000000023  0.0002459999999971  0.4994170000000011
  0.4988409999999988  0.0013730000000010  0.9996039999999979
  0.0000140000000002  0.9992739999999998  0.5005680000000012
  0.5013939999999977  0.4978729999999985  0.9914679999999976
  0.0048290000000009  0.5009009999999989  0.5000789999999995
  0.9995199999999969  0.5001579999999990  0.9995899999999978
  0.4920839999999984  0.5009640000000033  0.5064849999999979
  0.4715610000000012  0.7485029999999995  0.9685050000000004
  0.9690280000000016  0.7480090000000033  0.4639769999999999
  0.9720870000000019  0.2497899999999973  0.9736809999999991
  0.4600689999999972  0.2535859999999985  0.4671560000000028
  0.0290419999999969  0.7490809999999968  0.0330289999999991
  0.5465659999999986  0.7471030000000027  0.5210229999999996
  0.5281930000000017  0.2523929999999979  0.0422000000000011
  0.0258409999999998  0.2513790000000000  0.5335839999999976
  0.2483450000000005  0.4665749999999989  0.9508750000000035
  0.9454179999999965  0.5316559999999981  0.7459220000000002
  0.5461609999999979  0.0352239999999995  0.7519660000000030
  0.0464070000000021  0.0286189999999991  0.2529100000000000
  0.7522870000000026  0.9750820000000004  0.0434210000000022
  0.2525029999999973  0.9613340000000008  0.5492080000000001
  0.2478849999999966  0.0318180000000012  0.9489969999999985
  0.7474100000000021  0.0373030000000014  0.4504859999999979
  0.4494400000000027  0.9668709999999976  0.2475600000000000
  0.9501040000000032  0.9642089999999968  0.7477969999999985
  0.7499990000000025  0.5310479999999984  0.0562960000000032
  0.2516620000000032  0.5397719999999993  0.5551689999999994
  0.5556660000000022  0.4618150000000014  0.7478619999999978
  0.0555450000000022  0.4671859999999981  0.2536599999999964
  0.6003049999999988  0.5016320000000007  0.3473049999999986

  0.00000000E+00  0.00000000E+00  0.00000000E+00
  0.00000000E+00  0.00000000E+00  0.00000000E+00
  0.00000000E+00  0.00000000E+00  0.00000000E+00
  0.00000000E+00  0.00000000E+00  0.00000000E+00
  0.00000000E+00  0.00000000E+00  0.00000000E+00
  0.00000000E+00  0.00000000E+00  0.00000000E+00
  0.00000000E+00  0.00000000E+00  0.00000000E+00
  0.00000000E+00  0.00000000E+00  0.00000000E+00
  0.00000000E+00  0.00000000E+00  0.00000000E+00
  0.00000000E+00  0.00000000E+00  0.00000000E+00
  0.00000000E+00  0.00000000E+00  0.00000000E+00
  0.00000000E+00  0.00000000E+00  0.00000000E+00
  0.00000000E+00  0.00000000E+00  0.00000000E+00
  0.00000000E+00  0.00000000E+00  0.00000000E+00
  0.00000000E+00  0.00000000E+00  0.00000000E+00
  0.00000000E+00  0.00000000E+00  0.00000000E+00
  0.00000000E+00  0.00000000E+00  0.00000000E+00
  0.00000000E+00  0.00000000E+00  0.00000000E+00
  0.00000000E+00  0.00000000E+00  0.00000000E+00
  0.00000000E+00  0.00000000E+00  0.00000000E+00
  0.00000000E+00  0.00000000E+00  0.00000000E+00
  0.00000000E+00  0.00000000E+00  0.00000000E+00
  0.00000000E+00  0.00000000E+00  0.00000000E+00
  0.00000000E+00  0.00000000E+00  0.00000000E+00
  0.00000000E+00  0.00000000E+00  0.00000000E+00
  0.00000000E+00  0.00000000E+00  0.00000000E+00
  0.00000000E+00  0.00000000E+00  0.00000000E+00
  0.00000000E+00  0.00000000E+00  0.00000000E+00
  0.00000000E+00  0.00000000E+00  0.00000000E+00
  0.00000000E+00  0.00000000E+00  0.00000000E+00
  0.00000000E+00  0.00000000E+00  0.00000000E+00
  0.00000000E+00  0.00000000E+00  0.00000000E+00
  0.00000000E+00  0.00000000E+00  0.00000000E+00
  0.00000000E+00  0.00000000E+00  0.00000000E+00
  0.00000000E+00  0.00000000E+00  0.00000000E+00
  0.00000000E+00  0.00000000E+00  0.00000000E+00
  0.00000000E+00  0.00000000E+00  0.00000000E+00
  0.00000000E+00  0.00000000E+00  0.00000000E+00
  0.00000000E+00  0.00000000E+00  0.00000000E+00
