Cs8 Pb8 Br23
1.0
8.456489 0.000000 8.040301
0.000000 11.729847 0.000000
-8.456489 0.000000 8.040301
Cs Pb Br
8 8 23
direct
0.264451 0.240576 0.203446 Cs
0.777721 0.238700 0.720139 Cs
0.719373 0.766183 0.263240 Cs
0.204388 0.754601 0.778504 Cs
0.286537 0.243563 0.728312 Cs
0.796327 0.245889 0.225590 Cs
0.728754 0.753869 0.794285 Cs
0.225095 0.756700 0.288332 Cs
0.000360 -0.000855 -0.000570 Pb
0.499864 0.000246 0.499417 Pb
0.498841 0.001373 -0.000396 Pb
0.000014 -0.000726 0.500568 Pb
0.501394 0.497873 -0.008532 Pb
0.004829 0.500901 0.500079 Pb
-0.000480 0.500158 -0.000410 Pb
0.492084 0.500964 0.506485 Pb
0.471561 0.748503 0.968505 Br
0.969028 0.748009 0.463977 Br
0.972087 0.249790 0.973681 Br
0.460069 0.253586 0.467156 Br
0.029042 0.749081 0.033029 Br
0.546566 0.747103 0.521023 Br
0.528193 0.252393 0.042200 Br
0.025841 0.251379 0.533584 Br
0.248345 0.466575 0.950875 Br
0.945418 0.531656 0.745922 Br
0.546161 0.035224 0.751966 Br
0.046407 0.028619 0.252910 Br
0.752287 0.975082 0.043421 Br
0.252503 0.961334 0.549208 Br
0.247885 0.031818 0.948997 Br
0.747410 0.037303 0.450486 Br
0.449440 0.966871 0.247560 Br
0.950104 0.964209 0.747797 Br
0.749999 0.531048 0.056296 Br
0.251662 0.539772 0.555169 Br
0.555666 0.461815 0.747862 Br
0.055545 0.467186 0.253660 Br
0.600305 0.501632 0.347305 Br
