Cs7 Pb8 Br24                            
   1.0000000000000000     
     8.4200180000000007    0.0000000000000000    8.0779809999999994
     0.0000000000000000   11.7638079999999992    0.0000000000000000
    -8.4200180000000007    0.0000000000000000    8.0779809999999994
   Cs   Pb   Br   Cs
     6     8    24     1
Direct
  0.2699969999999965  0.2500009999999975  0.1980149999999981
  0.7738069999999979  0.2500009999999975  0.7174320000000023
  0.2090910000000008  0.7500000000000000  0.7641700000000000
  0.2936070000000015  0.2499990000000025  0.7381590000000031
  0.7907429999999991  0.2499990000000025  0.2236029999999971
  0.2442490000000035  0.7500009999999975  0.2771400000000028
  0.9963849999999965  0.9957259999999977  0.9971329999999980
  0.4988960000000020  0.0031540000000021  0.4986099999999993
  0.5054850000000002  0.9960110000000029  0.9986630000000005
  0.0032720000000026  0.0023460000000028  0.5002799999999965
  0.5054859999999977  0.5039919999999967  0.9986650000000026
  0.0032690000000031  0.4976520000000022  0.5002870000000001
  0.9963880000000032  0.5042690000000007  0.9971279999999965
  0.4988979999999970  0.4968509999999995  0.4986060000000023
  0.4557209999999969  0.7500020000000021  0.9701850000000007
  0.0044579999999996  0.7499970000000005  0.4649900000000002
  0.9715029999999985  0.2499979999999979  0.9694489999999973
  0.4494949999999989  0.2500009999999975  0.4671820000000011
  0.0473349999999968  0.7500000000000000  0.0292710000000014
  0.4975480000000019  0.7500020000000021  0.5248630000000034
  0.5296499999999966  0.2500009999999975  0.0300939999999983
  0.0316090000000031  0.2499990000000025  0.5465980000000030
  0.2479259999999996  0.4690829999999977  0.9511749999999992
  0.7477450000000019  0.4502900000000025  0.4569720000000004
  0.4446549999999974  0.5194040000000015  0.2465100000000007
  0.9466359999999980  0.5386880000000005  0.7449730000000017
  0.5455889999999997  0.0436249999999987  0.7495669999999990
  0.0518739999999980  0.0369620000000026  0.2503770000000003
  0.7531139999999965  0.9716859999999983  0.0626990000000021
  0.2511239999999972  0.9801730000000006  0.5588499999999996
  0.2479269999999971  0.0309200000000018  0.9511740000000017
  0.7477459999999994  0.0497110000000021  0.4569710000000029
  0.4446539999999999  0.9805959999999985  0.2465100000000007
  0.9466359999999980  0.9613099999999974  0.7449719999999971
  0.7531159999999986  0.5283149999999992  0.0626999999999995
  0.2511259999999993  0.5198260000000019  0.5588479999999976
  0.5455889999999997  0.4563759999999988  0.7495679999999965
  0.0518709999999984  0.4630349999999979  0.2503760000000028
  0.7273759999999996  0.7499990000000025  0.2060990000000018

  0.00000000E+00  0.00000000E+00  0.00000000E+00
  0.00000000E+00  0.00000000E+00  0.00000000E+00
  0.00000000E+00  0.00000000E+00  0.00000000E+00
  0.00000000E+00  0.00000000E+00  0.00000000E+00
  0.00000000E+00  0.00000000E+00  0.00000000E+00
  0.00000000E+00  0.00000000E+00  0.00000000E+00
  0.00000000E+00  0.00000000E+00  0.00000000E+00
  0.00000000E+00  0.00000000E+00  0.00000000E+00
  0.00000000E+00  0.00000000E+00  0.00000000E+00
  0.00000000E+00  0.00000000E+00  0.00000000E+00
  0.00000000E+00  0.00000000E+00  0.00000000E+00
  0.00000000E+00  0.00000000E+00  0.00000000E+00
  0.00000000E+00  0.00000000E+00  0.00000000E+00
  0.00000000E+00  0.00000000E+00  0.00000000E+00
  0.00000000E+00  0.00000000E+00  0.00000000E+00
  0.00000000E+00  0.00000000E+00  0.00000000E+00
  0.00000000E+00  0.00000000E+00  0.00000000E+00
  0.00000000E+00  0.00000000E+00  0.00000000E+00
  0.00000000E+00  0.00000000E+00  0.00000000E+00
  0.00000000E+00  0.00000000E+00  0.00000000E+00
  0.00000000E+00  0.00000000E+00  0.00000000E+00
  0.00000000E+00  0.00000000E+00  0.00000000E+00
  0.00000000E+00  0.00000000E+00  0.00000000E+00
  0.00000000E+00  0.00000000E+00  0.00000000E+00
  0.00000000E+00  0.00000000E+00  0.00000000E+00
  0.00000000E+00  0.00000000E+00  0.00000000E+00
  0.00000000E+00  0.00000000E+00  0.00000000E+00
  0.00000000E+00  0.00000000E+00  0.00000000E+00
  0.00000000E+00  0.00000000E+00  0.00000000E+00
  0.00000000E+00  0.00000000E+00  0.00000000E+00
  0.00000000E+00  0.00000000E+00  0.00000000E+00
  0.00000000E+00  0.00000000E+00  0.00000000E+00
  0.00000000E+00  0.00000000E+00  0.00000000E+00
  0.00000000E+00  0.00000000E+00  0.00000000E+00
  0.00000000E+00  0.00000000E+00  0.00000000E+00
  0.00000000E+00  0.00000000E+00  0.00000000E+00
  0.00000000E+00  0.00000000E+00  0.00000000E+00
  0.00000000E+00  0.00000000E+00  0.00000000E+00
  0.00000000E+00  0.00000000E+00  0.00000000E+00
