Cs7 Pb8 Br24
1.0
8.420018 0.000000 8.077981
0.000000 11.763808 0.000000
-8.420018 0.000000 8.077981
Cs Pb Br Cs
6 8 24 1
direct
0.269997 0.250001 0.198015 Cs
0.773807 0.250001 0.717432 Cs
0.209091 0.750000 0.764170 Cs
0.293607 0.249999 0.738159 Cs
0.790743 0.249999 0.223603 Cs
0.244249 0.750001 0.277140 Cs
-0.003615 -0.004274 -0.002867 Pb
0.498896 0.003154 0.498610 Pb
0.505485 -0.003989 -0.001337 Pb
0.003272 0.002346 0.500280 Pb
0.505486 0.503992 -0.001335 Pb
0.003269 0.497652 0.500287 Pb
-0.003612 0.504269 -0.002872 Pb
0.498898 0.496851 0.498606 Pb
0.455721 0.750002 0.970185 Br
1.004458 0.749997 0.464990 Br
0.971503 0.249998 0.969449 Br
0.449495 0.250001 0.467182 Br
0.047335 0.750000 0.029271 Br
0.497548 0.750002 0.524863 Br
0.529650 0.250001 0.030094 Br
0.031609 0.249999 0.546598 Br
0.247926 0.469083 0.951175 Br
0.747745 0.450290 0.456972 Br
0.444655 0.519404 0.246510 Br
0.946636 0.538688 0.744973 Br
0.545589 0.043625 0.749567 Br
0.051874 0.036962 0.250377 Br
0.753114 0.971686 0.062699 Br
0.251124 0.980173 0.558850 Br
0.247927 0.030920 0.951174 Br
0.747746 0.049711 0.456971 Br
0.444654 0.980596 0.246510 Br
0.946636 0.961310 0.744972 Br
0.753116 0.528315 0.062700 Br
0.251126 0.519826 0.558848 Br
0.545589 0.456376 0.749568 Br
0.051871 0.463035 0.250376 Br
0.727376 0.749999 1.206099 Cs
