Cs24 Pb6 Br36                           
   1.0000000000000000     
    13.7520073697738319    0.0000000000000000    0.0000000000000000
    -6.8760036848869159   11.9095875579652564   -0.0000000000000000
     0.0000000000000000   -0.0000000000000000   17.3519547922273354
   Cs   Pb   Br
    24     6    36
Direct
  0.3333330000000032  0.6666669999999968  0.9166669999999968
  0.3333330000000032  0.6666669999999968  0.4166669999999968
  0.3757838113804652  0.0000000000000000  0.2500000000000000
  0.9999999999999929  0.3757838113804581  0.2500000000000000
  0.6242161886195348  0.6242161886195419  0.2500000000000000
  0.2908831886195387  0.3333330000000032  0.0833330000000032
  0.6666670000000039  0.9575491886195451  0.0833330000000032
  0.0424508113804620  0.7091168113804542  0.0833330000000032
  0.0000000000000000  0.0000000000000000  0.2500000000000000
  0.0000000000000000  0.0000000000000000  0.7500000000000000
  0.0424508113804620  0.3333330000000032  0.5833330000000032
  0.6666669999999897  0.7091168113804542  0.5833330000000032
  0.2908831886195387  0.9575491886195451  0.5833330000000032
  0.9575491886195380  0.6666669999999968  0.4166669999999968
  0.3333330000000103  0.2908831886195458  0.4166669999999968
  0.7091168113804613  0.0424508113804549  0.4166669999999968
  0.6666669999999968  0.3333330000000032  0.5833330000000032
  0.6666669999999968  0.3333330000000032  0.0833330000000032
  0.7091168113804613  0.6666669999999968  0.9166669999999968
  0.3333329999999961  0.0424508113804549  0.9166669999999968
  0.9575491886195380  0.2908831886195458  0.9166669999999968
  0.6242161886195348  0.0000000000000000  0.7500000000000000
  0.0000000000000071  0.6242161886195419  0.7500000000000000
  0.3757838113804652  0.3757838113804581  0.7500000000000000
  0.0000000000000000  0.0000000000000000  0.0000000000000000
  0.3333330000000032  0.6666669999999968  0.1666669999999968
  0.6666669999999968  0.3333330000000032  0.3333330000000032
  0.0000000000000000  0.0000000000000000  0.5000000000000000
  0.3333330000000032  0.6666669999999968  0.6666669999999968
  0.6666669999999968  0.3333330000000032  0.8333330000000032
  0.1404705867555762  0.5025533626700280  0.0653461412697069
  0.4974466373296025  0.6379162240853375  0.0653461412697069
  0.3620837759148188  0.8595294132446369  0.0653461412697069
  0.9712502240855443  0.1641126373299784  0.1013198587302924
  0.8358873626701779  0.8071365867553624  0.1013198587302924
  0.1928634132442753  0.0287497759146618  0.1013198587302924
  0.5261964132444277  0.8307796373299752  0.2679868587302963
  0.1692203626703943  0.6954167759146657  0.2679868587302963
  0.3045832240851780  0.4738035867553592  0.2679868587302963
  0.6954167759144596  0.1692203626700248  0.2320131412697037
  0.4738035867557215  0.3045832240853343  0.2320131412697037
  0.8307796373298189  0.5261964132446408  0.2320131412697037
  0.8071365867555755  0.8358873626700216  0.3986801412697076
  0.1641126373296089  0.9712502240853382  0.3986801412697076
  0.0287497759148181  0.1928634132446376  0.3986801412697076
  0.6379162240855436  0.4974466373299720  0.4346538587302931
  0.5025533626701844  0.1404705867553631  0.4346538587302931
  0.8595294132442746  0.3620837759146625  0.4346538587302931
  0.1928634132444245  0.1641126373299784  0.6013198587302924
  0.8358873626703911  0.0287497759146618  0.6013198587302924
  0.9712502240851819  0.8071365867553624  0.6013198587302924
  0.3620837759144564  0.5025533626700280  0.5653461412697069
  0.1404705867557254  0.6379162240853375  0.5653461412697069
  0.4974466373298156  0.8595294132446369  0.5653461412697069
  0.4738035867555723  0.1692203626700248  0.7320131412697037
  0.8307796373296057  0.3045832240853343  0.7320131412697037
  0.6954167759148220  0.5261964132446408  0.7320131412697037
  0.3045832240855404  0.8307796373299752  0.7679868587302963
  0.1692203626701811  0.4738035867553592  0.7679868587302963
  0.5261964132442785  0.6954167759146657  0.7679868587302963
  0.8595294132444238  0.4974466373299720  0.9346538587302931
  0.5025533626703975  0.3620837759146625  0.9346538587302931
  0.6379162240851812  0.1404705867553631  0.9346538587302931
  0.0287497759144557  0.8358873626700216  0.8986801412697076
  0.8071365867557247  0.9712502240853382  0.8986801412697076
  0.1641126373298221  0.1928634132446376  0.8986801412697076

  0.00000000E+00  0.00000000E+00  0.00000000E+00
  0.00000000E+00  0.00000000E+00  0.00000000E+00
  0.00000000E+00  0.00000000E+00  0.00000000E+00
  0.00000000E+00  0.00000000E+00  0.00000000E+00
  0.00000000E+00  0.00000000E+00  0.00000000E+00
  0.00000000E+00  0.00000000E+00  0.00000000E+00
  0.00000000E+00  0.00000000E+00  0.00000000E+00
  0.00000000E+00  0.00000000E+00  0.00000000E+00
  0.00000000E+00  0.00000000E+00  0.00000000E+00
  0.00000000E+00  0.00000000E+00  0.00000000E+00
  0.00000000E+00  0.00000000E+00  0.00000000E+00
  0.00000000E+00  0.00000000E+00  0.00000000E+00
  0.00000000E+00  0.00000000E+00  0.00000000E+00
  0.00000000E+00  0.00000000E+00  0.00000000E+00
  0.00000000E+00  0.00000000E+00  0.00000000E+00
  0.00000000E+00  0.00000000E+00  0.00000000E+00
  0.00000000E+00  0.00000000E+00  0.00000000E+00
  0.00000000E+00  0.00000000E+00  0.00000000E+00
  0.00000000E+00  0.00000000E+00  0.00000000E+00
  0.00000000E+00  0.00000000E+00  0.00000000E+00
  0.00000000E+00  0.00000000E+00  0.00000000E+00
  0.00000000E+00  0.00000000E+00  0.00000000E+00
  0.00000000E+00  0.00000000E+00  0.00000000E+00
  0.00000000E+00  0.00000000E+00  0.00000000E+00
  0.00000000E+00  0.00000000E+00  0.00000000E+00
  0.00000000E+00  0.00000000E+00  0.00000000E+00
  0.00000000E+00  0.00000000E+00  0.00000000E+00
  0.00000000E+00  0.00000000E+00  0.00000000E+00
  0.00000000E+00  0.00000000E+00  0.00000000E+00
  0.00000000E+00  0.00000000E+00  0.00000000E+00
  0.00000000E+00  0.00000000E+00  0.00000000E+00
  0.00000000E+00  0.00000000E+00  0.00000000E+00
  0.00000000E+00  0.00000000E+00  0.00000000E+00
  0.00000000E+00  0.00000000E+00  0.00000000E+00
  0.00000000E+00  0.00000000E+00  0.00000000E+00
  0.00000000E+00  0.00000000E+00  0.00000000E+00
  0.00000000E+00  0.00000000E+00  0.00000000E+00
  0.00000000E+00  0.00000000E+00  0.00000000E+00
  0.00000000E+00  0.00000000E+00  0.00000000E+00
  0.00000000E+00  0.00000000E+00  0.00000000E+00
  0.00000000E+00  0.00000000E+00  0.00000000E+00
  0.00000000E+00  0.00000000E+00  0.00000000E+00
  0.00000000E+00  0.00000000E+00  0.00000000E+00
  0.00000000E+00  0.00000000E+00  0.00000000E+00
  0.00000000E+00  0.00000000E+00  0.00000000E+00
  0.00000000E+00  0.00000000E+00  0.00000000E+00
  0.00000000E+00  0.00000000E+00  0.00000000E+00
  0.00000000E+00  0.00000000E+00  0.00000000E+00
  0.00000000E+00  0.00000000E+00  0.00000000E+00
  0.00000000E+00  0.00000000E+00  0.00000000E+00
  0.00000000E+00  0.00000000E+00  0.00000000E+00
  0.00000000E+00  0.00000000E+00  0.00000000E+00
  0.00000000E+00  0.00000000E+00  0.00000000E+00
  0.00000000E+00  0.00000000E+00  0.00000000E+00
  0.00000000E+00  0.00000000E+00  0.00000000E+00
  0.00000000E+00  0.00000000E+00  0.00000000E+00
  0.00000000E+00  0.00000000E+00  0.00000000E+00
  0.00000000E+00  0.00000000E+00  0.00000000E+00
  0.00000000E+00  0.00000000E+00  0.00000000E+00
  0.00000000E+00  0.00000000E+00  0.00000000E+00
  0.00000000E+00  0.00000000E+00  0.00000000E+00
  0.00000000E+00  0.00000000E+00  0.00000000E+00
  0.00000000E+00  0.00000000E+00  0.00000000E+00
  0.00000000E+00  0.00000000E+00  0.00000000E+00
  0.00000000E+00  0.00000000E+00  0.00000000E+00
  0.00000000E+00  0.00000000E+00  0.00000000E+00
