Cs63 Pb64 Br192
1.0
16.840035 0.000000 16.155961
0.000000 23.527616 0.000000
-16.840035 0.000000 16.155961
Cs Pb Br Cs Pb Br Cs
56 56 168 6 8 24 1
direct
0.886139 0.874933 0.354352 Cs
0.136110 0.875047 0.603813 Cs
0.886304 0.375638 0.354372 Cs
0.136603 0.375537 0.603866 Cs
0.886077 0.875096 0.853381 Cs
0.136470 0.875048 0.103888 Cs
0.387697 0.875387 0.353833 Cs
0.638886 0.874987 0.604916 Cs
0.885718 0.375621 0.852877 Cs
0.137591 0.375591 0.105681 Cs
0.386674 0.874923 0.854048 Cs
0.636007 0.874920 0.103982 Cs
0.386482 0.376106 0.854353 Cs
0.636109 0.375637 0.103934 Cs
0.103978 0.125329 0.386315 Cs
0.354503 0.125326 0.636745 Cs
0.104636 0.624922 0.386381 Cs
0.103974 0.125256 0.886299 Cs
0.353931 0.125295 0.136495 Cs
0.603616 0.125560 0.387770 Cs
0.853909 0.125287 0.636438 Cs
0.104162 0.625204 0.885946 Cs
0.356617 0.625288 0.137099 Cs
0.850990 0.625775 0.636429 Cs
0.603757 0.125356 0.886192 Cs
0.853882 0.125200 0.136294 Cs
0.603326 0.625407 0.884407 Cs
0.853566 0.625327 0.136324 Cs
0.896516 0.875064 0.114166 Cs
0.146907 0.875109 0.364305 Cs
0.896387 0.375438 0.114082 Cs
0.147472 0.376132 0.364402 Cs
0.895899 0.874648 0.614277 Cs
0.146709 0.874916 0.864070 Cs
0.396870 0.875045 0.114343 Cs
0.646751 0.875130 0.364142 Cs
0.896096 0.375799 0.614394 Cs
0.146633 0.375660 0.864030 Cs
0.396947 0.375738 0.114482 Cs
0.395525 0.875579 0.614633 Cs
0.647044 0.876057 0.864416 Cs
0.648213 0.374766 0.864547 Cs
0.114292 0.125289 0.146569 Cs
0.364768 0.125781 0.396875 Cs
0.114176 0.625060 0.146352 Cs
0.114197 0.125270 0.646719 Cs
0.364193 0.125291 0.896486 Cs
0.614005 0.125261 0.146723 Cs
0.864072 0.125260 0.396877 Cs
0.114782 0.625128 0.646995 Cs
0.366211 0.625478 0.893554 Cs
0.614297 0.625264 0.146553 Cs
0.864687 0.625149 0.396006 Cs
0.614008 0.125465 0.646502 Cs
0.864055 0.125205 0.896482 Cs
0.865168 0.625265 0.899990 Cs
0.750156 0.750452 0.250576 Pb
0.000076 0.750097 0.500331 Pb
0.750107 0.250466 0.250129 Pb
0.000189 0.250541 0.500201 Pb
0.749140 0.748752 0.749718 Pb
0.000124 0.750418 0.000072 Pb
0.250590 0.750079 0.250568 Pb
0.500810 0.750807 0.503444 Pb
0.750220 0.250731 0.750207 Pb
0.000088 0.250571 0.000110 Pb
0.250807 0.750651 0.749897 Pb
0.500250 0.750520 0.999805 Pb
0.250236 0.250602 0.750216 Pb
0.500093 0.250499 0.000058 Pb
0.000201 0.750378 0.250203 Pb
0.250332 0.750407 0.500202 Pb
0.000247 0.250627 0.250207 Pb
0.999924 0.750180 0.750054 Pb
0.250499 0.750009 0.000173 Pb
0.500435 0.750403 0.250776 Pb
0.749530 0.749879 0.501845 Pb
0.000182 0.250583 0.750130 Pb
0.250183 0.250629 0.000226 Pb
0.750162 0.250966 0.500328 Pb
0.503844 0.749550 0.749604 Pb
0.749983 0.750515 0.999778 Pb
0.500323 0.251330 0.750143 Pb
0.750160 0.250503 0.000139 Pb
0.000123 0.000363 0.250147 Pb
0.250248 0.000575 0.500109 Pb
0.000610 0.500427 0.250308 Pb
0.000141 0.000188 0.750102 Pb
0.250242 0.000256 0.000136 Pb
0.500313 0.000633 0.250236 Pb
0.750124 0.000350 0.500082 Pb
0.999798 0.500688 0.749946 Pb
0.250511 0.500762 0.000264 Pb
0.750029 0.502067 0.503000 Pb
0.500370 -0.000118 0.750074 Pb
0.750149 0.000315 0.000128 Pb
0.503929 0.501658 0.749806 Pb
0.750017 0.500563 0.999821 Pb
0.750082 0.000535 0.250192 Pb
0.000175 0.000390 0.500215 Pb
0.750586 0.500648 0.251005 Pb
0.000528 0.500639 0.500470 Pb
0.750196 0.000263 0.750204 Pb
0.000155 0.000446 0.000129 Pb
0.250306 0.000325 0.250309 Pb
0.500280 0.000221 0.500515 Pb
0.749311 0.503404 0.749881 Pb
0.000120 0.500156 0.000157 Pb
0.250201 0.000459 0.750145 Pb
0.500135 0.000563 0.000113 Pb
0.250972 0.500686 0.749939 Pb
0.500468 0.500575 0.000240 Pb
0.984773 0.125690 0.230831 Br
0.234691 0.125919 0.480469 Br
0.984547 0.625576 0.230841 Br
0.235726 0.625764 0.479699 Br
0.984723 0.125543 0.731134 Br
0.234522 0.125652 0.981220 Br
0.484216 0.125945 0.231205 Br
0.734473 0.125981 0.481151 Br
0.984281 0.625640 0.730019 Br
0.235600 0.625571 0.979327 Br
0.485553 0.625489 0.233348 Br
0.484943 0.125927 0.731242 Br
0.734583 0.125528 0.981163 Br
0.733594 0.625670 0.981458 Br
0.231133 0.875671 0.234342 Br
0.480060 0.876735 0.484087 Br
0.232863 0.376056 0.235131 Br
0.230694 0.876033 0.734194 Br
0.481068 0.876006 0.985221 Br
0.731102 0.875982 0.234224 Br
0.981174 0.875652 0.484821 Br
0.231437 0.375586 0.734380 Br
0.481077 0.375423 0.985296 Br
0.731108 0.375627 0.234416 Br
0.981275 0.375518 0.484806 Br
0.733693 0.875857 0.735693 Br
0.980994 0.875653 0.984458 Br
0.980206 0.375409 0.983938 Br
0.770403 0.125781 0.266181 Br
0.020045 0.125603 0.516168 Br
0.770472 0.625757 0.265784 Br
0.020910 0.625571 0.516165 Br
0.769932 0.125789 0.766069 Br
0.019948 0.125614 0.016232 Br
0.269819 0.125773 0.266432 Br
0.518940 0.126366 0.516597 Br
0.774588 0.626205 0.770501 Br
0.019560 0.625443 0.015817 Br
0.269510 0.125762 0.766323 Br
0.519844 0.125710 0.016407 Br
0.269104 0.625869 0.765390 Br
0.520059 0.625754 0.015446 Br
0.016276 0.875671 0.269841 Br
0.265254 0.876053 0.519504 Br
0.016658 0.375602 0.270234 Br
0.016487 0.875697 0.769783 Br
0.266305 0.875603 0.019997 Br
0.517031 0.876153 0.268417 Br
0.767225 0.876185 0.517800 Br
0.016233 0.375511 0.769633 Br
0.266382 0.375647 0.020257 Br
0.767028 0.375832 0.518117 Br
0.515883 0.876581 0.771411 Br
0.766136 0.875801 0.020167 Br
0.515750 0.375167 0.772357 Br
0.766025 0.375400 0.019546 Br
0.874193 0.982204 0.224630 Br
0.124101 0.982317 0.474503 Br
0.874864 0.482123 0.224955 Br
0.125158 0.482524 0.475452 Br
0.874369 0.982418 0.724494 Br
0.124149 0.982117 0.974622 Br
0.374231 0.982296 0.224562 Br
0.624298 0.982276 0.474616 Br
0.874549 0.482456 0.725070 Br
0.124276 0.482105 0.975313 Br
0.376106 0.482170 0.225575 Br
0.373999 0.982660 0.724884 Br
0.624179 0.982558 0.974988 Br
0.624494 0.481798 0.975237 Br
0.974606 0.018264 0.374054 Br
0.224653 0.018338 0.624083 Br
0.975431 0.518220 0.374075 Br
0.225923 0.518617 0.624078 Br
0.974678 0.018253 0.874189 Br
0.224635 0.018203 0.124153 Br
0.474767 0.018353 0.374068 Br
0.724759 0.018231 0.624117 Br
0.974908 0.518226 0.874288 Br
0.226583 0.519739 0.124755 Br
0.474719 0.018488 0.874311 Br
0.724649 0.018383 0.124154 Br
0.475421 0.516891 0.875619 Br
0.724714 0.518103 0.124357 Br
0.025932 0.768211 0.126271 Br
0.276270 0.769511 0.376227 Br
0.026159 0.268705 0.126286 Br
0.025771 0.768273 0.626184 Br
0.275515 0.768406 0.876396 Br
0.525588 0.767905 0.126500 Br
0.775645 0.768295 0.375749 Br
0.025953 0.268257 0.626199 Br
0.275825 0.268378 0.876311 Br
0.525816 0.268184 0.126372 Br
0.775979 0.268060 0.376150 Br
0.521175 0.777848 0.626823 Br
0.777130 0.768474 0.876811 Br
0.776701 0.267362 0.876487 Br
0.126336 0.232551 0.275860 Br
0.376155 0.232623 0.526416 Br
0.126385 0.731920 0.275740 Br
0.126215 0.232303 0.775772 Br
0.376111 0.232189 0.025765 Br
0.626378 0.231701 0.275983 Br
0.876379 0.232170 0.525747 Br
0.126196 0.732313 0.775712 Br
0.376149 0.732132 0.025763 Br
0.876606 0.732206 0.525520 Br
0.626390 0.232517 0.775924 Br
0.876317 0.232142 0.025927 Br
0.627197 0.740133 0.783926 Br
0.876408 0.732670 0.026602 Br
0.874355 0.768285 0.224652 Br
0.124084 0.768146 0.474522 Br
0.874266 0.268327 0.224559 Br
0.124118 0.268272 0.474467 Br
0.874430 0.768729 0.725730 Br
0.124149 0.768096 0.974797 Br
0.374218 0.768281 0.224622 Br
0.624287 0.770392 0.475374 Br
0.874466 0.267838 0.724403 Br
0.124094 0.268434 0.974681 Br
0.374329 0.268270 0.224757 Br
0.374551 0.768457 0.726997 Br
0.624265 0.768969 0.975284 Br
0.624207 0.267969 0.974792 Br
0.974637 0.232154 0.374079 Br
0.224617 0.232149 0.624100 Br
0.974933 0.732280 0.373990 Br
0.224937 0.732328 0.624064 Br
0.974747 0.232115 0.874241 Br
0.224787 0.232322 0.124257 Br
0.475657 0.232620 0.374423 Br
0.724918 0.232371 0.624264 Br
0.974928 0.732163 0.874355 Br
0.224928 0.731820 0.124372 Br
0.474641 0.232022 0.874428 Br
0.724715 0.232157 0.124251 Br
0.474618 0.735451 0.874797 Br
0.724657 0.732232 0.124105 Br
0.126239 0.018219 0.275739 Br
0.376120 0.018516 0.525858 Br
0.127263 0.518283 0.274949 Br
0.126211 0.018296 0.775845 Br
0.376141 0.018375 0.025899 Br
0.626357 0.019206 0.276312 Br
0.876341 0.018472 0.525806 Br
0.126302 0.518086 0.775578 Br
0.376309 0.518297 0.025750 Br
0.877175 0.518758 0.526370 Br
0.626392 0.018389 0.775786 Br
0.876324 0.018261 0.025882 Br
0.627547 0.510704 0.783964 Br
0.876573 0.518001 0.026947 Br
0.025840 0.982164 0.126208 Br
0.275983 0.982138 0.376141 Br
0.025968 0.481976 0.126235 Br
0.025769 0.982245 0.626174 Br
0.275750 0.982178 0.876233 Br
0.525976 0.982605 0.126266 Br
0.776023 0.982570 0.376082 Br
0.025996 0.482084 0.626165 Br
0.275369 0.482281 0.876506 Br
0.526406 0.483172 0.127458 Br
0.776400 0.482777 0.376282 Br
0.526550 0.982253 0.626262 Br
0.776216 0.982777 0.876389 Br
0.777563 0.483307 0.876867 Br
0.388519 0.375446 0.353889 Cs
0.639498 0.377503 0.606833 Cs
0.360097 0.626235 0.638812 Cs
0.395722 0.376088 0.615166 Cs
0.649087 0.375849 0.365290 Cs
0.368667 0.625752 0.400063 Cs
0.250439 0.250715 0.250484 Pb
0.500297 0.252116 0.500896 Pb
0.500510 0.250562 0.250407 Pb
0.250388 0.250694 0.500272 Pb
0.502601 0.500317 0.252634 Pb
0.252110 0.500878 0.500367 Pb
0.252776 0.501315 0.250799 Pb
0.502725 0.501392 0.503695 Pb
0.483694 0.625888 0.741068 Br
0.736917 0.626024 0.478630 Br
0.735642 0.376079 0.736444 Br
0.479757 0.375993 0.484841 Br
0.273211 0.626015 0.268119 Br
0.511752 0.626412 0.514060 Br
0.518947 0.375330 0.270095 Br
0.265992 0.375679 0.519636 Br
0.375094 0.483629 0.727229 Br
0.625540 0.481942 0.475290 Br
0.476375 0.516688 0.376031 Br
0.725320 0.518155 0.624734 Br
0.527103 0.270183 0.626630 Br
0.276561 0.268849 0.376278 Br
0.626345 0.732107 0.276106 Br
0.375742 0.734577 0.526918 Br
0.373958 0.268029 0.724828 Br
0.624463 0.269805 0.475927 Br
0.475614 0.735753 0.374925 Br
0.726469 0.734530 0.624168 Br
0.627454 0.520850 0.278040 Br
0.376965 0.517964 0.527629 Br
0.521665 0.474515 0.627358 Br
0.277838 0.482125 0.376397 Br
0.603451 0.627273 0.389779 Cs
