Cs64 Pb64 Br191
1.0
16.840035 0.000000 16.155961
0.000000 23.527616 0.000000
-16.840035 0.000000 16.155961
Cs Pb Br Cs Pb Br
56 56 168 8 8 23
direct
0.887723 0.877570 0.353791 Cs
0.136186 0.875300 0.604377 Cs
0.888841 0.374640 0.354476 Cs
0.135825 0.376108 0.602815 Cs
0.887786 0.877066 0.854769 Cs
0.135841 0.875290 0.103858 Cs
0.385247 0.875140 0.353533 Cs
0.636351 0.874780 0.603507 Cs
0.889103 0.374323 0.854318 Cs
0.135831 0.375125 0.104000 Cs
0.385352 0.875608 0.854434 Cs
0.636066 0.875144 0.103639 Cs
0.385619 0.374982 0.858279 Cs
0.634565 0.375086 0.102449 Cs
0.103513 0.125064 0.386259 Cs
0.353908 0.125616 0.636252 Cs
0.103398 0.625009 0.388634 Cs
0.103817 0.125285 0.886541 Cs
0.352687 0.125163 0.135712 Cs
0.606868 0.124434 0.386621 Cs
0.853454 0.126135 0.635246 Cs
0.103772 0.625231 0.885977 Cs
0.354161 0.625120 0.136086 Cs
0.865667 0.628759 0.632103 Cs
0.603326 0.125137 0.886190 Cs
0.857063 0.124397 0.135628 Cs
0.599740 0.625638 0.889920 Cs
0.856945 0.626089 0.138084 Cs
0.895967 0.875016 0.114031 Cs
0.146223 0.875088 0.364009 Cs
0.893566 0.376118 0.114330 Cs
0.145976 0.378761 0.367866 Cs
0.893332 0.875504 0.613223 Cs
0.146788 0.875383 0.864385 Cs
0.395010 0.875085 0.114005 Cs
0.649049 0.875639 0.364199 Cs
0.896260 0.375462 0.611264 Cs
0.146688 0.374897 0.864063 Cs
0.396166 0.375503 0.115540 Cs
0.396238 0.875051 0.616237 Cs
0.646264 0.878153 0.865428 Cs
0.647093 0.374831 0.867574 Cs
0.114278 0.125188 0.146128 Cs
0.363633 0.125055 0.395517 Cs
0.114099 0.625212 0.148316 Cs
0.113969 0.125450 0.646387 Cs
0.363545 0.124768 0.896701 Cs
0.611663 0.122567 0.143359 Cs
0.864687 0.125388 0.399252 Cs
0.114603 0.624527 0.645322 Cs
0.362709 0.624591 0.896498 Cs
0.613904 0.625490 0.147184 Cs
0.871757 0.624435 0.388911 Cs
0.614001 0.124962 0.646982 Cs
0.864482 0.125298 0.896150 Cs
0.863806 0.627810 0.893007 Cs
0.750262 0.750369 0.249875 Pb
0.000399 0.752115 0.500148 Pb
0.753410 0.247114 0.246779 Pb
0.000236 0.250621 0.500166 Pb
0.750940 0.753295 0.750648 Pb
0.000213 0.750202 0.000239 Pb
0.249655 0.750608 0.249787 Pb
0.500110 0.752105 0.500169 Pb
0.750135 0.250933 0.750046 Pb
0.000138 0.250552 0.000259 Pb
0.249954 0.750453 0.750306 Pb
0.499809 0.750826 0.000855 Pb
0.249851 0.250358 0.750190 Pb
0.499743 0.250190 0.000634 Pb
0.000635 0.751042 0.249981 Pb
0.250620 0.750610 0.500426 Pb
0.001368 0.250105 0.250308 Pb
0.000850 0.751608 0.750625 Pb
0.249846 0.750297 0.000116 Pb
0.500134 0.750148 0.250320 Pb
0.750164 0.748909 0.496744 Pb
0.000010 0.250428 0.749896 Pb
0.249934 0.250469 0.000228 Pb
0.750107 0.254020 0.500227 Pb
0.499644 0.750802 0.753414 Pb
0.750110 0.750527 0.000059 Pb
0.499618 0.250143 0.752746 Pb
0.750402 0.250057 0.999818 Pb
0.000214 0.000525 0.250050 Pb
0.249866 0.000205 0.500074 Pb
0.001100 0.499666 0.250367 Pb
0.000068 0.000795 0.749927 Pb
0.249871 0.000376 0.000062 Pb
0.500043 0.999399 0.250120 Pb
0.750147 0.000826 0.500081 Pb
0.999987 0.500034 0.750591 Pb
0.249603 0.500241 0.000261 Pb
0.728082 0.501414 0.489245 Pb
0.499820 0.000688 0.750299 Pb
0.750260 0.000748 0.000175 Pb
0.499500 0.497550 0.753352 Pb
0.749777 0.502564 0.003087 Pb
0.750320 0.000150 0.249791 Pb
0.000232 0.000713 0.500328 Pb
0.750322 0.499151 0.250451 Pb
0.995291 0.501442 0.502674 Pb
0.750316 0.001228 0.750179 Pb
0.000233 0.000408 0.000165 Pb
0.249905 0.000484 0.250031 Pb
0.500114 0.001523 0.500304 Pb
0.750446 0.498895 0.754683 Pb
0.000142 0.500743 0.000213 Pb
0.249902 0.000657 0.750065 Pb
0.499537 0.000074 0.000109 Pb
0.249860 0.499917 0.750665 Pb
0.499711 0.500678 0.003311 Pb
0.985567 0.125459 0.231560 Br
0.234483 0.125362 0.480796 Br
0.984272 0.625501 0.235894 Br
0.234122 0.626414 0.481581 Br
0.983437 0.125955 0.730438 Br
0.234161 0.125576 0.981656 Br
0.482175 0.123709 0.230257 Br
0.735732 0.127284 0.484629 Br
0.986950 0.626016 0.733566 Br
0.233854 0.625412 0.981468 Br
0.484356 0.624617 0.231942 Br
0.484021 0.125127 0.732320 Br
0.734455 0.126043 0.979125 Br
0.734036 0.626022 0.977257 Br
0.230801 0.875609 0.234362 Br
0.482101 0.869023 0.486031 Br
0.228873 0.375357 0.235835 Br
0.231653 0.875488 0.734455 Br
0.480480 0.875283 0.984569 Br
0.731229 0.875064 0.233190 Br
0.980799 0.876301 0.485032 Br
0.230515 0.375540 0.733282 Br
0.482847 0.375697 0.986856 Br
0.738672 0.373971 0.224544 Br
0.985013 0.375838 0.484411 Br
0.730385 0.876309 0.733937 Br
0.981446 0.875515 0.985181 Br
0.980218 0.375852 0.985801 Br
0.774580 0.124414 0.266312 Br
0.018072 0.125755 0.516366 Br
0.768203 0.624224 0.265432 Br
0.013920 0.626577 0.517709 Br
0.769526 0.126615 0.765486 Br
0.018500 0.125711 0.016228 Br
0.268823 0.125499 0.265804 Br
0.518492 0.123626 0.515031 Br
0.768700 0.625166 0.757626 Br
0.020380 0.625605 0.016716 Br
0.269425 0.125629 0.765807 Br
0.517028 0.125136 0.014821 Br
0.267234 0.625371 0.767013 Br
0.517231 0.625897 0.019285 Br
0.016794 0.875757 0.268565 Br
0.267293 0.875629 0.520519 Br
0.017590 0.375196 0.269381 Br
0.016857 0.876173 0.769806 Br
0.265300 0.875464 0.018802 Br
0.516272 0.874302 0.272440 Br
0.763411 0.875040 0.516359 Br
0.016915 0.375785 0.769353 Br
0.266172 0.375567 0.019524 Br
0.759389 0.380006 0.526409 Br
0.514738 0.875116 0.769408 Br
0.765369 0.875774 0.018589 Br
0.516325 0.374089 0.777046 Br
0.764171 0.376734 0.017410 Br
0.874077 0.981905 0.224449 Br
0.124163 0.982103 0.474746 Br
0.874556 0.483428 0.226735 Br
0.128107 0.487444 0.480123 Br
0.873855 0.982290 0.724591 Br
0.123910 0.982382 0.974573 Br
0.374144 0.981732 0.224982 Br
0.623517 0.982536 0.474657 Br
0.871504 0.483336 0.721498 Br
0.123710 0.482065 0.974317 Br
0.374190 0.482181 0.227782 Br
0.374077 0.982582 0.724715 Br
0.623801 0.983840 0.976265 Br
0.624318 0.484064 0.976788 Br
0.974623 0.018202 0.374193 Br
0.224527 0.018258 0.623984 Br
0.978389 0.514513 0.374956 Br
0.228011 0.518258 0.624700 Br
0.974640 0.018255 0.873978 Br
0.224514 0.017928 0.124097 Br
0.474543 0.017714 0.374809 Br
0.724369 0.017695 0.624104 Br
0.972902 0.518276 0.874200 Br
0.224357 0.517832 0.124132 Br
0.474522 0.017771 0.874004 Br
0.725016 0.018316 0.124000 Br
0.474217 0.517773 0.877378 Br
0.726537 0.520412 0.122640 Br
0.025701 0.767819 0.126095 Br
0.275631 0.768023 0.376333 Br
0.025479 0.268006 0.126182 Br
0.024646 0.768302 0.626428 Br
0.275439 0.768044 0.876105 Br
0.524849 0.768578 0.127401 Br
0.776762 0.772019 0.374181 Br
0.025846 0.268293 0.626149 Br
0.275096 0.267956 0.876161 Br
0.525185 0.267680 0.126556 Br
0.777968 0.266428 0.375632 Br
0.527805 0.764362 0.627288 Br
0.778759 0.768401 0.875345 Br
0.775722 0.270270 0.875978 Br
0.126392 0.231932 0.276007 Br
0.376386 0.232505 0.524688 Br
0.126197 0.732214 0.276389 Br
0.125653 0.232075 0.775562 Br
0.375946 0.232614 0.025747 Br
0.626653 0.223802 0.269011 Br
0.875687 0.235720 0.526219 Br
0.126146 0.732721 0.775434 Br
0.376030 0.732497 0.025858 Br
0.876276 0.735864 0.522046 Br
0.626192 0.232205 0.775633 Br
0.875904 0.232442 0.025451 Br
0.626529 0.739607 0.786768 Br
0.875898 0.731986 0.025540 Br
0.874076 0.767910 0.224920 Br
0.125969 0.768289 0.475757 Br
0.875248 0.266800 0.222787 Br
0.124100 0.267625 0.474469 Br
0.873696 0.768766 0.725388 Br
0.123934 0.768142 0.974500 Br
0.374299 0.768077 0.225428 Br
0.623508 0.766057 0.472643 Br
0.873615 0.271053 0.724558 Br
0.123855 0.268208 0.974590 Br
0.374277 0.267763 0.224995 Br
0.374832 0.767669 0.725299 Br
0.623805 0.768433 0.974826 Br
0.623924 0.267064 0.975644 Br
0.974498 0.232313 0.374184 Br
0.225097 0.232523 0.623946 Br
0.977580 0.735694 0.374350 Br
0.224936 0.732074 0.624224 Br
0.974575 0.232449 0.873969 Br
0.224439 0.232485 0.124109 Br
0.474923 0.232076 0.374683 Br
0.723733 0.232746 0.623962 Br
0.975171 0.732903 0.874089 Br
0.224388 0.732473 0.124105 Br
0.473629 0.231450 0.875258 Br
0.725266 0.228229 0.123386 Br
0.471976 0.732489 0.875553 Br
0.725093 0.731870 0.123152 Br
0.126157 0.018047 0.275743 Br
0.376518 0.017789 0.525776 Br
0.126291 0.519201 0.276798 Br
0.126036 0.018407 0.775560 Br
0.375882 0.017884 0.025713 Br
0.626196 0.018172 0.275290 Br
0.875879 0.017632 0.526039 Br
0.124682 0.517843 0.774994 Br
0.375829 0.517738 0.026074 Br
0.872780 0.514750 0.522036 Br
0.626106 0.018260 0.775635 Br
0.876007 0.017812 0.025235 Br
0.626736 0.517650 0.781131 Br
0.875824 0.520152 0.025438 Br
0.025380 0.982461 0.126124 Br
0.275533 0.982106 0.376247 Br
0.025354 0.482535 0.126100 Br
0.025427 0.982156 0.626146 Br
0.275351 0.982517 0.876060 Br
0.525001 0.981498 0.126444 Br
0.775731 0.983432 0.376198 Br
0.024471 0.482507 0.627152 Br
0.274902 0.482068 0.876467 Br
0.524458 0.482453 0.129796 Br
0.773070 0.477665 0.375501 Br
0.525578 0.982081 0.625849 Br
0.775536 0.982455 0.875991 Br
0.777594 0.482960 0.871023 Br
0.386190 0.375567 0.357019 Cs
0.629174 0.367212 0.603748 Cs
0.606307 0.624239 0.383105 Cs
0.353190 0.623749 0.638940 Cs
0.389226 0.374988 0.614590 Cs
0.650059 0.356110 0.346023 Cs
0.621526 0.636223 0.674290 Cs
0.359954 0.624559 0.392272 Cs
0.249858 0.250490 0.250169 Pb
0.499777 0.249465 0.499896 Pb
0.499501 0.248097 0.249508 Pb
0.249590 0.250021 0.499647 Pb
0.500060 0.500296 0.254040 Pb
0.253316 0.502154 0.500326 Pb
0.249690 0.499724 0.249883 Pb
0.513566 0.495597 0.504014 Pb
0.483217 0.624092 0.736216 Br
0.742796 0.626122 0.462552 Br
0.726170 0.376879 0.732473 Br
0.482011 0.377480 0.488797 Br
0.266923 0.625486 0.263416 Br
0.513252 0.373735 0.268942 Br
0.264420 0.376081 0.515612 Br
0.374003 0.481693 0.728474 Br
0.620261 0.459539 0.440550 Br
0.478095 0.524908 0.380116 Br
0.521313 0.263552 0.626628 Br
0.275698 0.267975 0.376139 Br
0.626150 0.732343 0.275480 Br
0.378618 0.728563 0.525931 Br
0.373973 0.268649 0.726962 Br
0.623452 0.266735 0.472828 Br
0.475604 0.728003 0.376630 Br
0.728781 0.732686 0.622760 Br
0.626473 0.517858 0.271740 Br
0.386145 0.523822 0.522304 Br
0.516139 0.468356 0.630565 Br
0.275647 0.483176 0.376189 Br
0.629320 0.556842 0.553097 Br
