Cs64 Pb64 Br191
1.0
16.840035 0.000000 16.155961
0.000000 23.527616 0.000000
-16.840035 0.000000 16.155961
Cs Pb Br Cs Pb Br
56 56 168 8 8 23
direct
0.885274 0.874318 0.353568 Cs
0.136082 0.875066 0.603814 Cs
0.886182 0.375189 0.353872 Cs
0.136188 0.374791 0.603422 Cs
0.886502 0.875224 0.853724 Cs
0.135597 0.875053 0.102622 Cs
0.385760 0.878506 0.354173 Cs
0.632874 0.871965 0.603190 Cs
0.886252 0.374695 0.853530 Cs
0.136289 0.374734 0.104169 Cs
0.386341 0.875012 0.852648 Cs
0.635895 0.875058 0.103990 Cs
0.385997 0.374305 0.853492 Cs
0.636130 0.375310 0.103112 Cs
0.103793 0.124907 0.386019 Cs
0.353182 0.124585 0.635675 Cs
0.102629 0.625083 0.386059 Cs
0.103364 0.124899 0.885914 Cs
0.353775 0.124720 0.135559 Cs
0.603241 0.124862 0.385553 Cs
0.853854 0.124763 0.636343 Cs
0.103923 0.625069 0.885979 Cs
0.353247 0.625314 0.135229 Cs
0.853356 0.624730 0.634645 Cs
0.603841 0.125119 0.886014 Cs
0.853687 0.124898 0.135737 Cs
0.604112 0.625966 0.888598 Cs
0.853142 0.625210 0.137159 Cs
0.896729 0.875095 0.113939 Cs
0.145590 0.875170 0.363575 Cs
0.896653 0.374837 0.113709 Cs
0.146124 0.374595 0.364107 Cs
0.896668 0.875306 0.613981 Cs
0.146247 0.875099 0.863841 Cs
0.396578 0.876045 0.112735 Cs
0.645458 0.875438 0.362757 Cs
0.898670 0.374532 0.614560 Cs
0.146263 0.374794 0.863779 Cs
0.392886 0.375004 0.114103 Cs
0.397589 0.873833 0.614464 Cs
0.645582 0.875255 0.863819 Cs
0.646646 0.374746 0.864503 Cs
0.113356 0.124653 0.145944 Cs
0.362831 0.123215 0.396785 Cs
0.114354 0.624772 0.146483 Cs
0.113926 0.124849 0.646346 Cs
0.364084 0.125020 0.896442 Cs
0.614204 0.125101 0.145875 Cs
0.864297 0.124817 0.396443 Cs
0.113670 0.624985 0.645992 Cs
0.363114 0.625973 0.896616 Cs
0.613646 0.626742 0.146530 Cs
0.865147 0.624829 0.397010 Cs
0.614060 0.124941 0.646111 Cs
0.864168 0.124862 0.896551 Cs
0.863567 0.625103 0.895454 Cs
0.750177 0.751329 0.248740 Pb
0.000193 0.750436 0.500105 Pb
0.750289 0.249640 0.249835 Pb
0.000083 0.249522 0.499989 Pb
0.750343 0.751232 0.750277 Pb
0.000024 0.749673 0.999983 Pb
0.249395 0.751007 0.249456 Pb
0.499501 0.745801 0.494003 Pb
0.750292 0.249294 0.750287 Pb
0.000033 0.249959 0.999931 Pb
0.249742 0.750254 0.750162 Pb
0.499757 0.750575 0.999754 Pb
0.249934 0.249601 0.750158 Pb
0.499933 0.250375 0.000148 Pb
0.000267 0.749992 0.249899 Pb
0.249869 0.750244 0.500053 Pb
0.999784 0.249659 0.249837 Pb
0.000014 0.749764 0.749993 Pb
0.249802 0.750377 0.999946 Pb
0.497118 0.751084 0.249206 Pb
0.750786 0.751175 0.501222 Pb
-0.000001 0.249669 0.750032 Pb
0.249779 0.249597 0.999623 Pb
0.750228 0.248850 0.500118 Pb
0.500153 0.749496 0.749361 Pb
0.750304 0.750407 0.999845 Pb
0.499830 0.249930 0.749760 Pb
0.750156 0.249759 -0.000026 Pb
0.999908 0.999972 0.249955 Pb
0.249696 0.999290 0.500275 Pb
0.000236 0.499660 0.249960 Pb
0.000034 0.999783 0.749988 Pb
0.249871 -0.000053 0.999771 Pb
0.499891 0.000582 0.249518 Pb
0.750008 0.000244 0.500134 Pb
0.000092 0.500031 0.750096 Pb
0.249619 0.499938 0.999652 Pb
0.750852 0.496581 0.501247 Pb
0.499930 0.000439 0.749939 Pb
0.750065 0.999947 0.999952 Pb
0.500231 0.500292 0.752681 Pb
0.750526 0.500006 0.000092 Pb
0.750231 0.000615 0.249993 Pb
0.999966 0.999893 0.499953 Pb
0.750466 0.499001 0.249042 Pb
0.000218 0.499463 0.500076 Pb
0.749979 0.999810 0.749912 Pb
0.999961 0.999820 0.999924 Pb
0.249601 0.999666 0.249502 Pb
0.500348 0.000024 0.500324 Pb
0.750532 0.499236 0.750560 Pb
0.000009 0.500031 0.999964 Pb
0.249984 -0.000034 0.750061 Pb
0.500055 0.000366 0.999913 Pb
0.249798 0.499660 0.750221 Pb
0.499615 0.500363 0.999753 Pb
0.983962 0.124887 0.230355 Br
0.233895 0.124094 0.482066 Br
0.984577 0.624660 0.230882 Br
0.232280 0.624983 0.481106 Br
0.984478 0.124786 0.730599 Br
0.234233 0.124873 0.980026 Br
0.484956 0.126489 0.229849 Br
0.733534 0.124587 0.479439 Br
0.983866 0.624756 0.729878 Br
0.234233 0.624960 0.981359 Br
0.483492 0.624569 0.230997 Br
0.484127 0.125474 0.729243 Br
0.734269 0.125031 0.980534 Br
0.734846 0.625016 0.981166 Br
0.229073 0.874937 0.233291 Br
0.486233 0.867025 0.488256 Br
0.233265 0.374213 0.235905 Br
0.230771 0.874834 0.734303 Br
0.480905 0.875281 0.983219 Br
0.731845 0.875667 0.234149 Br
0.980412 0.874899 0.483666 Br
0.231091 0.374810 0.733998 Br
0.479575 0.375878 0.985543 Br
0.730889 0.375231 0.233173 Br
0.981669 0.374592 0.483814 Br
0.728839 0.875162 0.733570 Br
0.980950 0.874685 0.984355 Br
0.980730 0.375030 0.984171 Br
0.769901 0.125568 0.265927 Br
0.019661 0.124692 0.515577 Br
0.764194 0.625301 0.268532 Br
0.017467 0.624804 0.515628 Br
0.769678 0.124698 0.766000 Br
0.018998 0.124904 0.015349 Br
0.270068 0.124079 0.265246 Br
0.517354 0.123145 0.514900 Br
0.767093 0.625097 0.763359 Br
0.020077 0.624755 0.015785 Br
0.269977 0.124850 0.765674 Br
0.519224 0.125732 0.015584 Br
0.267427 0.624753 0.767307 Br
0.518644 0.624810 0.016895 Br
0.014809 0.874799 0.269456 Br
0.266983 0.874219 0.520884 Br
0.015588 0.374776 0.269522 Br
0.015693 0.874681 0.768987 Br
0.265668 0.875031 0.019243 Br
0.514543 0.875897 0.266613 Br
0.764398 0.875174 0.520274 Br
0.015529 0.374924 0.768838 Br
0.264807 0.374877 0.018479 Br
0.767454 0.373247 0.521030 Br
0.515813 0.874810 0.765386 Br
0.765717 0.875004 0.020112 Br
0.516501 0.375490 0.768339 Br
0.765621 0.375106 0.019556 Br
0.873816 0.982133 0.224523 Br
0.124002 0.981714 0.474637 Br
0.873857 0.482314 0.224348 Br
0.124826 0.482166 0.474363 Br
0.873808 0.981929 0.724537 Br
0.123951 0.982102 0.974372 Br
0.373885 0.982282 0.224316 Br
0.623574 0.982089 0.474381 Br
0.873639 0.482160 0.724522 Br
0.123904 0.481980 0.974476 Br
0.375044 0.481861 0.228372 Br
0.374022 0.981936 0.724159 Br
0.623841 0.982125 0.974584 Br
0.623441 0.481978 0.975611 Br
0.974589 0.017868 0.373876 Br
0.224452 0.017853 0.623989 Br
0.974473 0.517684 0.373906 Br
0.224686 0.517753 0.623775 Br
0.974535 0.017804 0.873822 Br
0.224460 0.018091 0.123835 Br
0.474637 0.017413 0.374121 Br
0.724368 0.018097 0.623768 Br
0.974525 0.518057 0.873861 Br
0.225212 0.516891 0.124052 Br
0.474714 0.017946 0.873623 Br
0.724538 0.018080 0.123945 Br
0.474656 0.517853 0.877354 Br
0.723703 0.518625 0.124182 Br
0.025511 0.767828 0.126123 Br
0.274724 0.770397 0.375944 Br
0.025455 0.267966 0.126077 Br
0.025601 0.767987 0.626003 Br
0.275584 0.768103 0.876005 Br
0.524385 0.768255 0.125155 Br
0.772903 0.764709 0.376211 Br
0.025621 0.267795 0.625992 Br
0.275598 0.267926 0.876130 Br
0.524511 0.270762 0.126473 Br
0.775716 0.268042 0.376111 Br
0.526489 0.757413 0.623023 Br
0.775802 0.768185 0.876178 Br
0.775423 0.267849 0.876111 Br
0.125967 0.231814 0.275091 Br
0.376171 0.232054 0.525205 Br
0.126090 0.732106 0.275624 Br
0.126226 0.231999 0.775468 Br
0.376102 0.232187 0.025404 Br
0.625994 0.232210 0.275400 Br
0.875858 0.231609 0.525450 Br
0.126018 0.732115 0.775353 Br
0.376105 0.732192 0.025098 Br
0.876332 0.734618 0.526048 Br
0.625946 0.232061 0.774996 Br
0.875995 0.232113 0.025456 Br
0.626120 0.732554 0.777338 Br
0.876059 0.731734 0.025679 Br
0.873922 0.767556 0.224301 Br
0.124495 0.768090 0.474604 Br
0.873770 0.268099 0.224457 Br
0.123868 0.267684 0.474654 Br
0.873674 0.767980 0.724339 Br
0.123879 0.767907 0.974249 Br
0.372863 0.768102 0.220996 Br
0.623862 0.762585 0.470075 Br
0.873899 0.267732 0.724495 Br
0.123896 0.267915 0.974448 Br
0.373794 0.266209 0.223378 Br
0.374001 0.767437 0.724456 Br
0.623935 0.767956 0.974706 Br
0.623746 0.268121 0.974801 Br
0.974566 0.231990 0.373845 Br
0.224427 0.232071 0.624173 Br
0.974417 0.732125 0.373912 Br
0.224544 0.731944 0.623798 Br
0.974488 0.232075 0.873826 Br
0.224030 0.231766 0.123674 Br
0.473363 0.229717 0.373645 Br
0.724468 0.231853 0.623815 Br
0.974477 0.731882 0.873812 Br
0.223859 0.732536 0.123789 Br
0.474776 0.232532 0.873617 Br
0.724438 0.232137 0.123979 Br
0.474948 0.731969 0.873006 Br
0.724727 0.731913 0.123851 Br
0.126076 0.018094 0.275333 Br
0.376470 0.016227 0.525541 Br
0.126406 0.516724 0.276658 Br
0.126169 0.017919 0.775386 Br
0.376196 0.017964 0.025226 Br
0.626002 0.017902 0.275362 Br
0.875945 0.017962 0.525394 Br
0.126215 0.517702 0.775405 Br
0.376251 0.517854 0.025426 Br
0.876349 0.514377 0.525913 Br
0.625943 0.018213 0.775375 Br
0.876054 0.017844 0.025369 Br
0.626006 0.517759 0.778901 Br
0.875919 0.518269 0.025910 Br
0.025410 0.982045 0.126072 Br
0.274315 0.982487 0.376190 Br
0.025717 0.481938 0.126172 Br
0.025446 0.981980 0.625994 Br
0.275693 0.981892 0.876082 Br
0.525554 0.982521 0.125966 Br
0.775300 0.981793 0.376091 Br
0.025807 0.482011 0.626049 Br
0.275787 0.481892 0.875962 Br
0.521866 0.481804 0.134176 Br
0.774127 0.483484 0.376359 Br
0.525762 0.982386 0.625684 Br
0.775329 0.981780 0.876048 Br
0.775991 0.482150 0.876545 Br
0.377961 0.367219 0.349277 Cs
0.638095 0.374480 0.606440 Cs
0.638842 0.629453 0.377748 Cs
0.350579 0.625280 0.638699 Cs
0.393539 0.374753 0.613290 Cs
0.649333 0.372428 0.363934 Cs
0.620273 0.625238 0.656402 Cs
0.357706 0.630346 0.392760 Cs
0.249275 0.248010 0.249173 Pb
0.499422 0.250178 0.499119 Pb
0.500087 0.250406 0.250058 Pb
0.249481 0.249149 0.500466 Pb
0.500630 0.500254 0.250354 Pb
0.250095 0.500525 0.500059 Pb
0.249499 0.499900 0.250156 Pb
0.500762 0.496594 0.503969 Pb
0.483772 0.624285 0.731899 Br
0.743772 0.623862 0.492901 Br
0.731485 0.374634 0.735984 Br
0.475301 0.375388 0.477614 Br
0.266439 0.625039 0.262664 Br
0.513629 0.376590 0.277344 Br
0.265128 0.374754 0.516682 Br
0.374783 0.482058 0.724942 Br
0.623666 0.477664 0.475893 Br
0.723851 0.514580 0.624528 Br
0.523871 0.270736 0.624618 Br
0.271949 0.263184 0.376057 Br
0.624862 0.737945 0.270414 Br
0.377159 0.728598 0.524733 Br
0.373991 0.268204 0.724373 Br
0.623329 0.267992 0.475120 Br
0.464380 0.744016 0.371142 Br
0.723283 0.734575 0.624225 Br
0.625959 0.514837 0.275145 Br
0.377281 0.519853 0.527005 Br
0.529180 0.490261 0.627416 Br
0.279245 0.484519 0.376183 Br
0.503209 0.597438 0.435114 Br
