Cs64 Pb64 Br191
1.0
16.840035 0.000000 16.155961
0.000000 23.527616 0.000000
-16.840035 0.000000 16.155961
Cs Pb Br Cs Pb Br
56 56 168 8 8 23
direct
0.885569 0.875373 0.353393 Cs
0.136659 0.875053 0.603350 Cs
0.889025 0.374993 0.353027 Cs
0.135629 0.374663 0.607672 Cs
0.887230 0.875095 0.853884 Cs
0.136102 0.875067 0.103116 Cs
0.389283 0.875206 0.360510 Cs
0.632700 0.875339 0.599909 Cs
0.885285 0.375153 0.852842 Cs
0.137500 0.375013 0.104608 Cs
0.386469 0.875057 0.853062 Cs
0.636523 0.875059 0.104309 Cs
0.386921 0.374953 0.856950 Cs
0.635468 0.375046 0.100279 Cs
0.103937 0.124313 0.386016 Cs
0.354358 0.122345 0.638020 Cs
0.104619 0.626090 0.385902 Cs
0.104003 0.124792 0.886124 Cs
0.354182 0.124242 0.136035 Cs
0.602964 0.119646 0.381437 Cs
0.854236 0.123807 0.636275 Cs
0.103950 0.625288 0.886179 Cs
0.354299 0.625880 0.136103 Cs
0.854146 0.628202 0.637338 Cs
0.604228 0.125699 0.885090 Cs
0.853914 0.124657 0.136376 Cs
0.604368 0.624370 0.885090 Cs
0.853936 0.625468 0.136490 Cs
0.897045 0.875065 0.114055 Cs
0.147056 0.875089 0.363865 Cs
0.893996 0.375020 0.113244 Cs
0.148767 0.374650 0.364674 Cs
0.894888 0.875266 0.612488 Cs
0.147116 0.875051 0.864397 Cs
0.396098 0.875083 0.113275 Cs
0.647210 0.875335 0.365007 Cs
0.903663 0.375022 0.617832 Cs
0.146508 0.375040 0.861407 Cs
0.398666 0.374970 0.113750 Cs
0.399144 0.875197 0.613225 Cs
0.646290 0.875058 0.863512 Cs
0.650420 0.375073 0.866895 Cs
0.113869 0.124539 0.146019 Cs
0.369054 0.128742 0.396488 Cs
0.113760 0.625591 0.145957 Cs
0.114762 0.124870 0.646044 Cs
0.364243 0.125004 0.896509 Cs
0.614131 0.124449 0.145944 Cs
0.863812 0.125056 0.396396 Cs
0.114956 0.625229 0.646282 Cs
0.364254 0.625080 0.896477 Cs
0.614058 0.625685 0.146099 Cs
0.864124 0.625588 0.396017 Cs
0.610935 0.124643 0.642323 Cs
0.864850 0.124192 0.898737 Cs
0.864996 0.625857 0.899418 Cs
0.750579 0.750272 0.249754 Pb
0.000185 0.750535 0.499999 Pb
0.750483 0.250500 0.249769 Pb
0.003904 0.250418 0.499319 Pb
0.749915 0.751159 0.749964 Pb
0.000185 0.750181 0.000044 Pb
0.250251 0.750561 0.250213 Pb
0.500536 0.745790 0.500204 Pb
0.753369 0.247258 0.751033 Pb
0.000210 0.250506 0.000072 Pb
0.250032 0.750562 0.750112 Pb
0.500105 0.750401 0.999785 Pb
0.249901 0.248614 0.750824 Pb
0.500256 0.249227 0.000002 Pb
0.000317 0.750297 0.250074 Pb
0.250351 0.750123 0.499598 Pb
0.000406 0.250141 0.249754 Pb
0.000262 0.750685 0.750073 Pb
0.250097 0.750071 0.000056 Pb
0.499431 0.751488 0.249518 Pb
0.749893 0.749574 0.499950 Pb
0.000293 0.248838 0.750403 Pb
0.249965 0.250370 0.000043 Pb
0.752556 0.254585 0.503131 Pb
0.500311 0.749877 0.750265 Pb
0.750075 0.750605 0.999992 Pb
0.500595 0.250244 0.750829 Pb
0.750387 0.248993 0.000187 Pb
0.000345 0.999968 0.250092 Pb
0.250249 0.000216 0.499615 Pb
0.000398 0.500017 0.249796 Pb
0.000236 0.999465 0.750031 Pb
0.250078 0.000272 0.000041 Pb
0.499473 0.998761 0.249558 Pb
0.749651 0.002699 0.499924 Pb
0.000192 0.501262 0.750376 Pb
0.249953 0.499923 0.999994 Pb
0.755170 0.497896 0.503461 Pb
0.500372 0.000291 0.750256 Pb
0.750078 0.999495 0.999963 Pb
0.500521 0.499812 0.750739 Pb
0.750393 0.501043 0.000232 Pb
0.750653 0.000153 0.249793 Pb
0.000188 0.999778 0.499980 Pb
0.750520 0.499852 0.249940 Pb
0.004144 0.500297 0.499504 Pb
0.749954 0.999111 0.749916 Pb
0.000212 0.000168 0.000065 Pb
0.250274 0.999590 0.250239 Pb
0.500681 0.006503 0.500320 Pb
0.753244 0.503255 0.750914 Pb
0.000260 0.499645 0.000156 Pb
0.250014 0.999476 0.750098 Pb
0.500096 0.999694 0.999780 Pb
0.250022 0.501231 0.750842 Pb
0.500238 0.500831 0.999989 Pb
0.984750 0.125369 0.230903 Br
0.236243 0.125343 0.478450 Br
0.984734 0.624899 0.231102 Br
0.237398 0.624373 0.478550 Br
0.985463 0.124580 0.729949 Br
0.234638 0.125536 0.980558 Br
0.485471 0.124461 0.233438 Br
0.732606 0.130006 0.480295 Br
0.985664 0.625639 0.730008 Br
0.234675 0.624888 0.980553 Br
0.485347 0.625601 0.234136 Br
0.486006 0.125668 0.731165 Br
0.733980 0.124691 0.981269 Br
0.733809 0.625419 0.981673 Br
0.229755 0.875078 0.233539 Br
0.489814 0.874694 0.489023 Br
0.235020 0.375163 0.235302 Br
0.230355 0.874957 0.734103 Br
0.480543 0.875036 0.983616 Br
0.732506 0.875220 0.235254 Br
0.980379 0.875164 0.483811 Br
0.237571 0.375001 0.732493 Br
0.483630 0.375116 0.985712 Br
0.732658 0.375293 0.228209 Br
0.983253 0.375583 0.484635 Br
0.727966 0.875135 0.731630 Br
0.981333 0.875164 0.984568 Br
0.978950 0.375153 0.984010 Br
0.768973 0.126005 0.266488 Br
0.018182 0.125667 0.515864 Br
0.768971 0.624483 0.266611 Br
0.019303 0.624964 0.515661 Br
0.772164 0.123748 0.767006 Br
0.019443 0.125484 0.015296 Br
0.271228 0.124866 0.266862 Br
0.519152 0.132295 0.508683 Br
0.772342 0.626595 0.767799 Br
0.019186 0.624857 0.015232 Br
0.268879 0.124500 0.766769 Br
0.520317 0.124701 0.015055 Br
0.269307 0.625425 0.766380 Br
0.520308 0.625413 0.015026 Br
0.015911 0.875140 0.270077 Br
0.267116 0.874892 0.519181 Br
0.018255 0.375157 0.269711 Br
0.017099 0.875076 0.770195 Br
0.265658 0.875186 0.018840 Br
0.516088 0.875080 0.271506 Br
0.763206 0.876324 0.516144 Br
0.014395 0.375110 0.765987 Br
0.267370 0.375242 0.020429 Br
0.765360 0.376462 0.538452 Br
0.516305 0.875091 0.767232 Br
0.766347 0.875061 0.020640 Br
0.517948 0.375162 0.773005 Br
0.765176 0.375072 0.014867 Br
0.874383 0.982203 0.224410 Br
0.124207 0.982231 0.474487 Br
0.874241 0.482008 0.225086 Br
0.124815 0.484367 0.475535 Br
0.873950 0.981422 0.724219 Br
0.124043 0.982277 0.974522 Br
0.374047 0.981445 0.224452 Br
0.624668 0.985825 0.473192 Br
0.875459 0.486224 0.720861 Br
0.124021 0.481091 0.974081 Br
0.374268 0.485831 0.220720 Br
0.374175 0.981871 0.724365 Br
0.624106 0.981835 0.974494 Br
0.624304 0.483025 0.974293 Br
0.974538 0.018197 0.373978 Br
0.224895 0.018010 0.623729 Br
0.975040 0.517974 0.374405 Br
0.228063 0.518365 0.623624 Br
0.974888 0.017860 0.873810 Br
0.224884 0.018078 0.123931 Br
0.474702 0.017356 0.373752 Br
0.724247 0.019046 0.623657 Br
0.974362 0.517878 0.873666 Br
0.224155 0.518338 0.124213 Br
0.474721 0.018035 0.873882 Br
0.724924 0.017966 0.123827 Br
0.475410 0.518348 0.873872 Br
0.725254 0.518229 0.125654 Br
0.025708 0.767933 0.126168 Br
0.276188 0.768480 0.376124 Br
0.025711 0.268304 0.126135 Br
0.025589 0.768235 0.625956 Br
0.275778 0.768034 0.875974 Br
0.525388 0.768175 0.125964 Br
0.775703 0.767192 0.376196 Br
0.026652 0.266237 0.625789 Br
0.275271 0.268307 0.876367 Br
0.527954 0.265481 0.125316 Br
0.772009 0.274857 0.377914 Br
0.525912 0.764521 0.625978 Br
0.775640 0.768902 0.875977 Br
0.778004 0.263586 0.876718 Br
0.126519 0.232020 0.275789 Br
0.376892 0.228103 0.526402 Br
0.126405 0.732037 0.275373 Br
0.126270 0.232306 0.775731 Br
0.376337 0.232097 0.025424 Br
0.626485 0.232389 0.276352 Br
0.869835 0.235310 0.525320 Br
0.126241 0.732060 0.775316 Br
0.376312 0.732111 0.025241 Br
0.876358 0.732066 0.525080 Br
0.627776 0.235702 0.772739 Br
0.876327 0.231970 0.026123 Br
0.626351 0.731660 0.775245 Br
0.876224 0.732242 0.025709 Br
0.874383 0.767899 0.224465 Br
0.124263 0.767854 0.474451 Br
0.874224 0.268104 0.224977 Br
0.123222 0.265928 0.475900 Br
0.873958 0.769158 0.724142 Br
0.124032 0.767801 0.974521 Br
0.374049 0.768629 0.224386 Br
0.624628 0.765090 0.473292 Br
0.875525 0.264202 0.721158 Br
0.123971 0.269244 0.973973 Br
0.374109 0.264190 0.220616 Br
0.374188 0.768177 0.724236 Br
0.624077 0.768213 0.974479 Br
0.624325 0.267022 0.974129 Br
0.974688 0.232174 0.374212 Br
0.227706 0.231684 0.623917 Br
0.974718 0.732056 0.373992 Br
0.224978 0.731975 0.623685 Br
0.974363 0.232179 0.873666 Br
0.224140 0.231806 0.124140 Br
0.479969 0.241893 0.374240 Br
0.721966 0.231719 0.623970 Br
0.974844 0.732207 0.873815 Br
0.224900 0.731968 0.123927 Br
0.475320 0.231677 0.873925 Br
0.725143 0.231954 0.125198 Br
0.474749 0.732013 0.873829 Br
0.724895 0.732152 0.123962 Br
0.126396 0.018092 0.275472 Br
0.376651 0.018040 0.524820 Br
0.126574 0.518045 0.275804 Br
0.126226 0.017950 0.775312 Br
0.376302 0.017962 0.025243 Br
0.626393 0.014973 0.272811 Br
0.876383 0.018375 0.525147 Br
0.126422 0.517755 0.775702 Br
0.376369 0.518022 0.025401 Br
0.872292 0.517664 0.525913 Br
0.626357 0.018406 0.775285 Br
0.876224 0.017876 0.025607 Br
0.627714 0.514721 0.772350 Br
0.876314 0.518097 0.026216 Br
0.025703 0.982157 0.126194 Br
0.276026 0.981674 0.376116 Br
0.025676 0.481827 0.126198 Br
0.025596 0.981814 0.625938 Br
0.275742 0.981976 0.875978 Br
0.525358 0.981822 0.126030 Br
0.775953 0.984679 0.376159 Br
0.027032 0.483914 0.625804 Br
0.275382 0.481819 0.876287 Br
0.527925 0.484936 0.125809 Br
0.772999 0.476208 0.378610 Br
0.525869 0.985912 0.626006 Br
0.775598 0.981311 0.875851 Br
0.777550 0.486843 0.876847 Br
0.380995 0.374842 0.335806 Cs
0.637627 0.374547 0.637951 Cs
0.603048 0.631438 0.381826 Cs
0.354381 0.627963 0.637639 Cs
0.378800 0.374086 0.627464 Cs
0.644641 0.374956 0.352468 Cs
0.610615 0.626157 0.642188 Cs
0.369506 0.621942 0.395985 Cs
0.249866 0.248538 0.249641 Pb
0.495164 0.272310 0.499651 Pb
0.500259 0.249333 0.248506 Pb
0.254093 0.249191 0.500006 Pb
0.500260 0.500653 0.248778 Pb
0.253019 0.500268 0.499642 Pb
0.249863 0.501559 0.249591 Pb
0.492308 0.479481 0.500187 Pb
0.485743 0.624554 0.730918 Br
0.733297 0.622607 0.480231 Br
0.748154 0.375284 0.747776 Br
0.424876 0.374703 0.484380 Br
0.271239 0.625357 0.266945 Br
0.518594 0.616329 0.508443 Br
0.515363 0.375100 0.258948 Br
0.259037 0.375162 0.520640 Br
0.374622 0.486641 0.729640 Br
0.479094 0.507881 0.375187 Br
0.722074 0.519514 0.623956 Br
0.518588 0.274408 0.625985 Br
0.276987 0.268280 0.376202 Br
0.626378 0.735350 0.272690 Br
0.376744 0.732334 0.524796 Br
0.374551 0.262917 0.730561 Br
0.474729 0.733618 0.373765 Br
0.724427 0.731720 0.623708 Br
0.626536 0.517813 0.277345 Br
0.380109 0.521739 0.525482 Br
0.519676 0.475573 0.625774 Br
0.276959 0.481600 0.376401 Br
0.585034 0.364634 0.490473 Br
