Cs64 Pb64 Br191
1.0
16.840035 0.000000 16.155961
0.000000 23.527616 0.000000
-16.840035 0.000000 16.155961
Cs Pb Br Cs Pb Br
56 56 168 8 8 23
direct
0.886330 0.875460 0.353542 Cs
0.136341 0.875078 0.603497 Cs
0.886119 0.374543 0.352008 Cs
0.136168 0.374579 0.605170 Cs
0.886554 0.875212 0.853895 Cs
0.135931 0.875177 0.103204 Cs
0.386072 0.874764 0.355688 Cs
0.635587 0.874345 0.603133 Cs
0.885953 0.374751 0.853491 Cs
0.135990 0.374832 0.103173 Cs
0.386110 0.875130 0.853259 Cs
0.636075 0.874866 0.103708 Cs
0.386393 0.374723 0.853453 Cs
0.636005 0.374876 0.102971 Cs
0.103884 0.124947 0.386206 Cs
0.353641 0.124794 0.635410 Cs
0.100242 0.625723 0.385073 Cs
0.103518 0.124981 0.886084 Cs
0.353634 0.124927 0.135951 Cs
0.603594 0.124201 0.385771 Cs
0.854051 0.124719 0.636107 Cs
0.104131 0.625006 0.885964 Cs
0.354183 0.625116 0.135672 Cs
0.854314 0.626363 0.636802 Cs
0.603813 0.124935 0.886036 Cs
0.853865 0.124890 0.135796 Cs
0.603633 0.624657 0.886686 Cs
0.853379 0.625131 0.136862 Cs
0.896560 0.875207 0.113893 Cs
0.146394 0.875043 0.363977 Cs
0.896410 0.374993 0.113686 Cs
0.146733 0.374520 0.363184 Cs
0.896772 0.875169 0.614100 Cs
0.146431 0.875213 0.864071 Cs
0.395849 0.875350 0.113553 Cs
0.647335 0.876787 0.362295 Cs
0.891517 0.373831 0.613383 Cs
0.146548 0.374821 0.864109 Cs
0.396126 0.375070 0.113945 Cs
0.397054 0.873980 0.614124 Cs
0.646159 0.875088 0.864127 Cs
0.646784 0.374708 0.864615 Cs
0.113918 0.124964 0.146100 Cs
0.364112 0.124523 0.396478 Cs
0.114065 0.625069 0.146913 Cs
0.114120 0.124973 0.646379 Cs
0.363909 0.124789 0.896536 Cs
0.613835 0.124822 0.146288 Cs
0.864464 0.124924 0.396529 Cs
0.112768 0.625374 0.646403 Cs
0.364062 0.625108 0.897158 Cs
0.614291 0.625495 0.143489 Cs
0.865307 0.627036 0.390597 Cs
0.613567 0.124025 0.645922 Cs
0.864424 0.124809 0.897014 Cs
0.863873 0.625246 0.896483 Cs
0.750931 0.751569 0.249171 Pb
0.000193 0.750475 0.500254 Pb
0.750312 0.249418 0.249655 Pb
0.000060 0.250030 0.500114 Pb
0.750177 0.750789 0.750213 Pb
0.000080 0.749933 0.999964 Pb
0.249485 0.750733 0.249563 Pb
0.503348 0.744164 0.499965 Pb
0.750720 0.248104 0.750876 Pb
1.000044 0.250162 0.999961 Pb
0.249682 0.750374 0.750412 Pb
0.499767 0.750464 0.999793 Pb
0.249959 0.249656 0.750211 Pb
0.500021 0.249695 0.000159 Pb
0.000480 0.750679 0.249712 Pb
0.250426 0.749224 0.499997 Pb
0.000140 0.249741 0.249893 Pb
1.000107 0.750271 0.750258 Pb
0.249878 0.750231 0.999969 Pb
0.498958 0.751117 0.249385 Pb
0.750327 0.750449 0.499916 Pb
0.000099 0.249963 0.750088 Pb
0.250013 0.249951 0.999973 Pb
0.749924 0.249295 0.499986 Pb
0.500131 0.749468 0.750199 Pb
0.750206 0.750325 0.999948 Pb
0.499592 0.248738 0.750644 Pb
0.750125 0.249666 0.000070 Pb
0.000097 0.000289 0.249919 Pb
0.250056 0.999534 0.500061 Pb
0.000324 0.499607 0.249706 Pb
0.000092 0.000165 0.750063 Pb
0.249968 0.000203 0.999937 Pb
0.499717 0.999869 0.249837 Pb
0.750253 -0.000123 0.500136 Pb
1.000018 0.499765 0.750318 Pb
0.249895 0.499956 0.000013 Pb
0.752824 0.502554 0.500397 Pb
0.499953 0.999574 0.750122 Pb
0.750052 -0.000066 -0.000002 Pb
0.499539 0.499288 0.750382 Pb
0.750221 0.500118 0.000074 Pb
0.750298 0.000615 0.249849 Pb
0.000162 0.000136 0.500081 Pb
0.749839 0.499223 0.249428 Pb
0.000756 0.499006 0.499682 Pb
0.750066 0.999473 0.750077 Pb
0.000083 0.000078 0.000030 Pb
0.249960 0.000221 0.249926 Pb
0.500088 0.997660 0.499943 Pb
0.750626 0.500099 0.750775 Pb
0.000063 0.500209 0.999939 Pb
0.250069 0.000036 0.750068 Pb
0.500004 0.999941 -0.000008 Pb
0.250013 0.499827 0.750495 Pb
0.499880 0.499714 -0.000011 Pb
0.984306 0.125221 0.230431 Br
0.235164 0.125269 0.481342 Br
0.983897 0.625024 0.232881 Br
0.231513 0.624532 0.477024 Br
0.984598 0.125116 0.730458 Br
0.234254 0.125177 0.980391 Br
0.484289 0.125252 0.231056 Br
0.734671 0.125389 0.480506 Br
0.984262 0.624960 0.730994 Br
0.234508 0.624997 0.981089 Br
0.486956 0.625318 0.230134 Br
0.484007 0.124081 0.730457 Br
0.734383 0.124968 0.980514 Br
0.734102 0.625009 0.981188 Br
0.230066 0.875290 0.234011 Br
0.484001 0.865610 0.486438 Br
0.230389 0.374729 0.233739 Br
0.230644 0.874918 0.734213 Br
0.480250 0.875094 0.983761 Br
0.732756 0.875876 0.232911 Br
0.981048 0.874842 0.484474 Br
0.231045 0.375062 0.734540 Br
0.480787 0.374911 0.984439 Br
0.730383 0.374776 0.233653 Br
0.977894 0.375280 0.484564 Br
0.729561 0.874658 0.733667 Br
0.981002 0.874971 0.984537 Br
0.980536 0.375281 0.984261 Br
0.770390 0.125446 0.266184 Br
0.019102 0.125316 0.515710 Br
0.763375 0.625172 0.265989 Br
0.016583 0.623989 0.515907 Br
0.770606 0.124050 0.766347 Br
0.019135 0.125191 0.015559 Br
0.270046 0.125064 0.266010 Br
0.517108 0.120942 0.514365 Br
0.768454 0.624945 0.765123 Br
0.020134 0.625003 0.015824 Br
0.270045 0.124977 0.765369 Br
0.519688 0.124951 0.015687 Br
0.267015 0.624961 0.768703 Br
0.518366 0.625007 0.015169 Br
0.015937 0.875301 0.269321 Br
0.266790 0.874039 0.519127 Br
0.016102 0.375018 0.269522 Br
0.015834 0.875031 0.769237 Br
0.265493 0.875147 0.019010 Br
0.514498 0.875371 0.271286 Br
0.765907 0.874918 0.519637 Br
0.015880 0.375107 0.769856 Br
0.265822 0.375078 0.019221 Br
0.754808 0.376892 0.519590 Br
0.515917 0.873978 0.767989 Br
0.765872 0.874996 0.019685 Br
0.517030 0.373953 0.768061 Br
0.765724 0.375076 0.018779 Br
0.874035 0.982260 0.224521 Br
0.123997 0.982056 0.474556 Br
0.873779 0.482312 0.224767 Br
0.122757 0.481884 0.475181 Br
0.873897 0.981897 0.724519 Br
0.123946 0.982196 0.974511 Br
0.373968 0.981934 0.224646 Br
0.623812 0.981982 0.474488 Br
0.873811 0.482705 0.723663 Br
0.123900 0.482024 0.974449 Br
0.373977 0.482294 0.225626 Br
0.374003 0.981744 0.724232 Br
0.623914 0.981998 0.974615 Br
0.623960 0.482179 0.974657 Br
0.974676 0.017957 0.373996 Br
0.224606 0.017841 0.623799 Br
0.974078 0.517100 0.374252 Br
0.224164 0.519294 0.623390 Br
0.974642 0.017888 0.873825 Br
0.224636 0.018068 0.123949 Br
0.474199 0.016761 0.374219 Br
0.724665 0.017928 0.623800 Br
0.974421 0.518019 0.873710 Br
0.224547 0.517596 0.123907 Br
0.474674 0.017832 0.873753 Br
0.724596 0.018190 0.123947 Br
0.474333 0.517562 0.873845 Br
0.724471 0.517746 0.124195 Br
0.025710 0.767843 0.126096 Br
0.275473 0.767767 0.376082 Br
0.025467 0.268012 0.126155 Br
0.025568 0.767948 0.626057 Br
0.275565 0.768181 0.875937 Br
0.523591 0.769164 0.125853 Br
0.775191 0.768397 0.375813 Br
0.025184 0.268228 0.625989 Br
0.275643 0.267948 0.876036 Br
0.525566 0.268057 0.126275 Br
0.775415 0.268233 0.376381 Br
0.527305 0.763838 0.625509 Br
0.775828 0.768120 0.875761 Br
0.775759 0.267333 0.876255 Br
0.126175 0.231967 0.275614 Br
0.376198 0.233519 0.525110 Br
0.126203 0.732239 0.275737 Br
0.126276 0.231999 0.775389 Br
0.376197 0.232034 0.025535 Br
0.626176 0.231967 0.275717 Br
0.875992 0.232941 0.526010 Br
0.126032 0.732249 0.775426 Br
0.376050 0.732181 0.025310 Br
0.876458 0.732139 0.524876 Br
0.626312 0.232255 0.774671 Br
0.876090 0.232132 0.025567 Br
0.626240 0.732695 0.777467 Br
0.876105 0.731787 0.025631 Br
0.874625 0.767724 0.224313 Br
0.125013 0.767756 0.474992 Br
0.873883 0.268091 0.224446 Br
0.123874 0.268678 0.474618 Br
0.873768 0.767996 0.724448 Br
0.123881 0.767939 0.974346 Br
0.373652 0.768035 0.224587 Br
0.624829 0.768398 0.471516 Br
0.874028 0.267402 0.724421 Br
0.123949 0.267948 0.974550 Br
0.374050 0.268222 0.224712 Br
0.374032 0.767729 0.724613 Br
0.623906 0.767896 0.974816 Br
0.623927 0.267801 0.974578 Br
0.974568 0.232157 0.373984 Br
0.224693 0.232272 0.623779 Br
0.975078 0.733953 0.373984 Br
0.224421 0.731583 0.623804 Br
0.974526 0.232083 0.873839 Br
0.224631 0.231939 0.123980 Br
0.474300 0.232004 0.373930 Br
0.724579 0.231640 0.624096 Br
0.974535 0.732019 0.873835 Br
0.224409 0.732390 0.123806 Br
0.474441 0.231847 0.874069 Br
0.724484 0.231869 0.124117 Br
0.474546 0.731959 0.873568 Br
0.725272 0.732209 0.123615 Br
0.126204 0.018156 0.275551 Br
0.376348 0.015772 0.525802 Br
0.125994 0.517659 0.276151 Br
0.126194 0.018036 0.775414 Br
0.376178 0.018020 0.025440 Br
0.626171 0.017854 0.275233 Br
0.876036 0.017878 0.525447 Br
0.126134 0.517663 0.775048 Br
0.376160 0.517761 0.025508 Br
0.870393 0.516393 0.524868 Br
0.626110 0.018042 0.775348 Br
0.876090 0.017867 0.025433 Br
0.626222 0.515908 0.776460 Br
0.876064 0.518288 0.025762 Br
0.025515 0.982160 0.126131 Br
0.275543 0.982025 0.376192 Br
0.025556 0.482152 0.126242 Br
0.025590 0.982065 0.625997 Br
0.275587 0.982082 0.876014 Br
0.525432 0.981831 0.126207 Br
0.775575 0.982168 0.376170 Br
0.023404 0.481038 0.625300 Br
0.275643 0.481831 0.875730 Br
0.525402 0.482107 0.126704 Br
0.772629 0.479031 0.376775 Br
0.525636 0.981764 0.625848 Br
0.775454 0.981770 0.876033 Br
0.776114 0.482824 0.875901 Br
0.386987 0.374613 0.354944 Cs
0.635355 0.367806 0.617054 Cs
0.610119 0.633263 0.373383 Cs
0.350368 0.627633 0.640767 Cs
0.397380 0.372193 0.613725 Cs
0.646652 0.369599 0.362089 Cs
0.617907 0.625228 0.655568 Cs
0.360381 0.625241 0.389761 Cs
0.249981 0.249627 0.249882 Pb
0.500088 0.248497 0.499349 Pb
0.499748 0.249816 0.249622 Pb
0.249781 0.250361 0.499904 Pb
0.499987 0.499922 0.249915 Pb
0.247735 0.501093 0.499873 Pb
0.249605 0.499352 0.249586 Pb
0.493891 0.502663 0.502922 Pb
0.483679 0.623818 0.730386 Br
0.737307 0.625065 0.474394 Br
0.735658 0.374334 0.738004 Br
0.491047 0.374460 0.483932 Br
0.266427 0.624912 0.262192 Br
0.515515 0.375234 0.270498 Br
0.266470 0.376419 0.519729 Br
0.373992 0.481252 0.723310 Br
0.478638 0.520618 0.376193 Br
0.723154 0.516708 0.622856 Br
0.523451 0.263848 0.625916 Br
0.275613 0.268219 0.376194 Br
0.626181 0.740012 0.268444 Br
0.377985 0.725698 0.523278 Br
0.374129 0.267835 0.724681 Br
0.623912 0.264410 0.474438 Br
0.476226 0.728403 0.373993 Br
0.724911 0.731698 0.623480 Br
0.626168 0.513954 0.276801 Br
0.377186 0.527141 0.524882 Br
0.524761 0.478100 0.626108 Br
0.275563 0.481876 0.376579 Br
0.558799 0.606807 0.512069 Br
