Cs64 Pb64 Br191
1.0
16.840035 0.000000 16.155961
0.000000 23.527616 0.000000
-16.840035 0.000000 16.155961
Cs Pb Br Cs Pb Br
56 56 168 8 8 23
Selective dynamics
direct
0.886078 0.875181 0.353564 F F F
0.135791 0.875139 0.603686 F F F
0.886314 0.375008 0.353715 F F F
0.135474 0.374884 0.603658 F F F
0.886457 0.875362 0.853892 F F F
0.135846 0.875146 0.103492 F F F
0.385993 0.875045 0.353531 F F F
0.636881 0.876270 0.603264 F F F
0.886169 0.375084 0.853943 F F F
0.135990 0.374850 0.103835 F F F
0.385792 0.875042 0.853674 F F F
0.636081 0.875133 0.103575 F F F
0.386088 0.372320 0.853136 F F F
0.637629 0.373982 0.103390 F F F
0.102949 0.124790 0.385664 F F F
0.353768 0.124194 0.636297 F F F
0.103181 0.625242 0.385933 F F F
0.103426 0.124870 0.886028 F F F
0.353781 0.124878 0.135990 F F F
0.603349 0.124865 0.385665 F F F
0.853974 0.124828 0.636183 F F F
0.103358 0.625127 0.886059 F F F
0.353090 0.625392 0.136049 F F F
0.853915 0.625463 0.635766 F F F
0.603698 0.124818 0.886098 F F F
0.853914 0.124912 0.136069 F F F
0.607218 0.625354 0.886668 F F F
0.853748 0.625138 0.136161 F F F
0.896621 0.875092 0.114031 F F F
0.146101 0.875172 0.363607 F F F
0.896511 0.374898 0.114009 F F F
0.146725 0.374931 0.364360 F F F
0.896351 0.875045 0.613973 F F F
0.146300 0.875159 0.864081 F F F
0.396349 0.875050 0.113961 F F F
0.646518 0.875249 0.363959 F F F
0.897503 0.374785 0.613984 F F F
0.146822 0.374772 0.863245 F F F
0.393714 0.374252 0.113794 F F F
0.396822 0.875144 0.614086 F F F
0.646216 0.875349 0.864369 F F F
0.645976 0.374703 0.863892 F F F
0.113833 0.124934 0.146332 F F F
0.363981 0.124624 0.396163 F F F
0.114070 0.625050 0.146335 F F F
0.114215 0.125078 0.646273 F F F
0.364048 0.124909 0.896334 F F F
0.614020 0.124875 0.146450 F F F
0.864132 0.124839 0.396126 F F F
0.113593 0.625098 0.646022 F F F
0.361665 0.625925 0.898148 F F F
0.614517 0.626035 0.146807 F F F
0.863863 0.625179 0.396511 F F F
0.614090 0.124680 0.646276 F F F
0.864243 0.124915 0.896657 F F F
0.863828 0.625166 0.895456 F F F
0.750157 0.750432 0.249800 F F F
0.999975 0.750339 0.499918 F F F
0.750204 0.249721 0.249863 F F F
0.999962 0.249626 0.499885 F F F
0.750688 0.751695 0.750818 F F F
0.000016 0.750036 0.000076 F F F
0.249746 0.750480 0.249762 F F F
0.500320 0.749606 0.500293 F F F
0.750390 0.249770 0.750328 F F F
0.000053 0.250021 0.000009 F F F
0.249774 0.750242 0.750149 F F F
0.500035 0.749998 0.999871 F F F
0.249476 0.249020 0.750422 F F F
0.500101 0.249924 0.000330 F F F
0.000035 0.750091 0.249966 F F F
0.249737 0.750772 0.500014 F F F
0.000039 0.250065 0.249982 F F F
0.000196 0.750253 0.750117 F F F
0.249751 0.750405 0.000103 F F F
0.500001 0.749903 0.250004 F F F
0.750558 0.751129 0.499472 F F F
0.999839 0.249850 0.750007 F F F
0.249713 0.249550 0.000025 F F F
0.750405 0.249413 0.499699 F F F
0.499785 0.750037 0.749884 F F F
0.750292 0.750443 0.000323 F F F
0.500500 0.249391 0.750204 F F F
0.750184 0.249637 0.000010 F F F
0.999987 0.000044 0.249951 F F F
0.249908 0.999465 0.499941 F F F
0.000060 0.499935 0.249983 F F F
0.000039 0.000009 0.749992 F F F
0.249936 0.000015 0.000006 F F F
0.500015 0.999773 0.249967 F F F
0.750136 0.000473 0.499841 F F F
0.999948 0.500124 0.750010 F F F
0.249435 0.499829 0.999833 F F F
0.750501 0.499526 0.500244 F F F
0.500056 0.999732 0.750091 F F F
0.750114 0.000151 0.000076 F F F
0.496813 0.502605 0.755188 F F F
0.750326 0.499843 0.000235 F F F
0.750071 0.000088 0.249951 F F F
0.000009 0.999982 0.499993 F F F
0.750267 0.500113 0.249817 F F F
0.000042 0.500136 0.499876 F F F
0.750187 0.000449 0.750192 F F F
0.000036 0.000058 0.000031 F F F
0.249935 0.000070 0.249934 F F F
0.499967 0.999603 0.499890 F F F
0.750049 0.499701 0.749690 F F F
0.000002 0.500071 0.000079 F F F
0.249854 0.999655 0.750017 F F F
0.499990 0.999930 0.000018 F F F
0.249710 0.500216 0.750238 F F F
0.500270 0.499835 0.003326 F F F
0.984386 0.125130 0.230900 F F F
0.233536 0.124188 0.479619 F F F
0.984542 0.624896 0.230788 F F F
0.233521 0.625221 0.481639 F F F
0.984571 0.125083 0.730489 F F F
0.234237 0.124943 0.980213 F F F
0.484496 0.125217 0.231195 F F F
0.733763 0.125481 0.479728 F F F
0.984233 0.624981 0.730541 F F F
0.233185 0.624901 0.981697 F F F
0.484048 0.624002 0.230498 F F F
0.484900 0.125136 0.730955 F F F
0.734173 0.125095 0.980322 F F F
0.735491 0.624967 0.981469 F F F
0.230494 0.875091 0.233976 F F F
0.481124 0.873833 0.484082 F F F
0.231310 0.375095 0.234683 F F F
0.230533 0.874496 0.734222 F F F
0.480674 0.874471 0.983869 F F F
0.730424 0.875137 0.234211 F F F
0.980414 0.875034 0.484229 F F F
0.233606 0.374717 0.732606 F F F
0.479866 0.375803 0.984518 F F F
0.731329 0.375210 0.233691 F F F
0.981538 0.375078 0.484195 F F F
0.730149 0.875844 0.734937 F F F
0.980949 0.874971 0.984418 F F F
0.980662 0.375157 0.984368 F F F
0.769440 0.125189 0.265647 F F F
0.019527 0.124984 0.515924 F F F
0.768630 0.625079 0.265963 F F F
0.018690 0.625010 0.515723 F F F
0.769782 0.125606 0.766041 F F F
0.019291 0.125122 0.015657 F F F
0.269779 0.124984 0.265663 F F F
0.519021 0.125184 0.515588 F F F
0.767009 0.625441 0.763677 F F F
0.019571 0.624922 0.015796 F F F
0.269067 0.124515 0.765800 F F F
0.519266 0.125203 0.015643 F F F
0.269641 0.624562 0.766682 F F F
0.520686 0.624228 0.015476 F F F
0.015565 0.874994 0.269197 F F F
0.266288 0.874773 0.520357 F F F
0.016014 0.375108 0.269724 F F F
0.015963 0.874988 0.769394 F F F
0.265848 0.874945 0.019468 F F F
0.515667 0.874437 0.269600 F F F
0.766449 0.875678 0.518036 F F F
0.015617 0.375184 0.769018 F F F
0.265078 0.374995 0.018625 F F F
0.767127 0.374918 0.519382 F F F
0.515297 0.874002 0.769479 F F F
0.765871 0.875120 0.019568 F F F
0.515777 0.376969 0.764522 F F F
0.766295 0.375000 0.018768 F F F
0.873926 0.982083 0.224517 F F F
0.124020 0.981805 0.474548 F F F
0.873853 0.482175 0.224568 F F F
0.124348 0.482945 0.474463 F F F
0.873919 0.982033 0.724531 F F F
0.124029 0.982100 0.974522 F F F
0.374079 0.982000 0.224552 F F F
0.623873 0.982183 0.474501 F F F
0.873339 0.482391 0.724079 F F F
0.124253 0.481844 0.974154 F F F
0.374942 0.481847 0.225295 F F F
0.374114 0.982068 0.724538 F F F
0.623889 0.982152 0.974635 F F F
0.623435 0.481959 0.974711 F F F
0.974563 0.017910 0.373994 F F F
0.224628 0.018016 0.623936 F F F
0.974444 0.518040 0.374051 F F F
0.224453 0.517642 0.623962 F F F
0.974575 0.017948 0.873921 F F F
0.224595 0.018070 0.123946 F F F
0.474557 0.017760 0.374055 F F F
0.724666 0.018103 0.623929 F F F
0.974451 0.517989 0.873860 F F F
0.224833 0.517658 0.123834 F F F
0.474574 0.017861 0.873894 F F F
0.724516 0.018049 0.123927 F F F
0.474392 0.518710 0.871126 F F F
0.724174 0.517911 0.123991 F F F
0.025551 0.767905 0.126039 F F F
0.275467 0.768092 0.376127 F F F
0.025471 0.267979 0.126036 F F F
0.025426 0.767954 0.626045 F F F
0.275561 0.767901 0.876011 F F F
0.525427 0.767746 0.125888 F F F
0.775583 0.767867 0.375693 F F F
0.025522 0.267838 0.626017 F F F
0.275221 0.267784 0.875894 F F F
0.525413 0.268581 0.126205 F F F
0.775648 0.268033 0.376060 F F F
0.526540 0.769260 0.626121 F F F
0.775904 0.768096 0.876202 F F F
0.775407 0.268161 0.875928 F F F
0.126130 0.232061 0.275525 F F F
0.375811 0.231470 0.525388 F F F
0.126103 0.732116 0.275510 F F F
0.125873 0.232151 0.775558 F F F
0.376100 0.232132 0.025394 F F F
0.626018 0.232176 0.275521 F F F
0.875790 0.231864 0.525523 F F F
0.126203 0.731918 0.775482 F F F
0.376168 0.731857 0.025365 F F F
0.876141 0.732212 0.525278 F F F
0.626055 0.232096 0.775554 F F F
0.875972 0.232016 0.025471 F F F
0.626058 0.733031 0.776238 F F F
0.876046 0.732033 0.025473 F F F
0.873902 0.767910 0.224447 F F F
0.124211 0.768148 0.474424 F F F
0.873945 0.267987 0.224543 F F F
0.123771 0.267191 0.474240 F F F
0.874077 0.768080 0.724872 F F F
0.124079 0.768021 0.974449 F F F
0.374083 0.767895 0.224709 F F F
0.624058 0.768013 0.474688 F F F
0.873816 0.268179 0.724428 F F F
0.124005 0.268060 0.974307 F F F
0.374113 0.267963 0.224759 F F F
0.374119 0.767896 0.724443 F F F
0.623947 0.767794 0.974462 F F F
0.623886 0.268139 0.974535 F F F
0.974405 0.232058 0.373999 F F F
0.225781 0.232640 0.623749 F F F
0.974495 0.732040 0.374003 F F F
0.224131 0.732227 0.623993 F F F
0.974455 0.232137 0.873896 F F F
0.224550 0.232030 0.123841 F F F
0.474213 0.232579 0.374181 F F F
0.724376 0.231990 0.623887 F F F
0.974577 0.732006 0.873936 F F F
0.224538 0.732190 0.123972 F F F
0.474779 0.232478 0.874078 F F F
0.724473 0.232016 0.123923 F F F
0.475239 0.728770 0.873463 F F F
0.724595 0.732207 0.123865 F F F
0.126115 0.017942 0.275404 F F F
0.376145 0.017838 0.525353 F F F
0.126378 0.517840 0.275622 F F F
0.126121 0.017929 0.775415 F F F
0.376123 0.017952 0.025401 F F F
0.625964 0.017907 0.275439 F F F
0.875977 0.018153 0.525428 F F F
0.126313 0.517670 0.775381 F F F
0.376510 0.518242 0.025584 F F F
0.875481 0.517745 0.525732 F F F
0.625954 0.017965 0.775450 F F F
0.876003 0.017980 0.025460 F F F
0.623672 0.518835 0.771296 F F F
0.875966 0.517972 0.025343 F F F
0.025472 0.982143 0.126024 F F F
0.275524 0.981811 0.376068 F F F
0.025502 0.482027 0.126033 F F F
0.025431 0.982073 0.626029 F F F
0.275521 0.981985 0.875987 F F F
0.525435 0.982025 0.126031 F F F
0.775479 0.982198 0.375999 F F F
0.025429 0.482169 0.626026 F F F
0.277032 0.481422 0.875776 F F F
0.525678 0.481575 0.126737 F F F
0.775223 0.482253 0.376302 F F F
0.525464 0.982150 0.626044 F F F
0.775499 0.982086 0.876001 F F F
0.774483 0.482301 0.875633 F F F
0.385485 0.373669 0.354473 F F F
0.639348 0.369785 0.603111 F F F
0.607212 0.626780 0.386843 F F F
0.349671 0.627241 0.635431 F F F
0.381857 0.367580 0.613999 F F F
0.648757 0.374174 0.363290 F F F
0.621529 0.633693 0.649158 F F F
0.360981 0.627612 0.395857 F F F
0.249855 0.249565 0.249938 F F F
0.499880 0.249476 0.500033 F F F
0.500051 0.249921 0.249963 F F F
0.249111 0.248230 0.499164 F F F
0.500503 0.499532 0.249045 F F F
0.249673 0.500744 0.499749 F F F
0.249804 0.500064 0.250021 F F F
0.499312 0.501182 0.494947 F F F
0.485389 0.623848 0.721881 F F F
0.734995 0.624993 0.484243 F F F
0.729577 0.375270 0.734388 F F F
0.477020 0.376381 0.491538 F F F
0.268825 0.625121 0.265069 F F F
0.524511 0.623160 0.519603 F F F
0.515996 0.375648 0.271503 F F F
0.260977 0.374689 0.513861 F F F
0.374370 0.481855 0.721154 F F F
0.473933 0.518905 0.378013 F F F
0.720063 0.515664 0.623768 F F F
0.524499 0.268281 0.626147 F F F
0.275614 0.267245 0.375871 F F F
0.625969 0.732149 0.275300 F F F
0.376381 0.731812 0.525105 F F F
0.374069 0.264817 0.727090 F F F
0.623618 0.268597 0.474705 F F F
0.475907 0.729657 0.374313 F F F
0.727923 0.737998 0.623963 F F F
0.625666 0.518181 0.275853 F F F
0.377665 0.517768 0.528298 F F F
0.277081 0.483693 0.376238 F F F
0.622942 0.478531 0.475700 T T T