Cs8 Pb8 Br23
1.0
8.456489 0.000000 8.040301
0.000000 11.729847 0.000000
-8.456489 0.000000 8.040301
Cs Pb Br
8 8 23
direct
0.266543 0.248589 0.197886 Cs
0.775560 0.246266 0.715914 Cs
0.717041 0.753157 0.264809 Cs
0.202047 0.754007 0.777790 Cs
0.290312 0.240342 0.741706 Cs
0.793624 0.246982 0.223097 Cs
0.734749 0.750275 0.806332 Cs
0.222982 0.756449 0.269794 Cs
-0.001680 0.001021 -0.000286 Pb
0.497926 0.005615 0.499781 Pb
0.500570 -0.001612 0.000594 Pb
0.000863 0.001866 0.500259 Pb
0.500175 0.499680 0.000464 Pb
-0.001574 0.500753 0.500223 Pb
0.000070 0.499130 0.000289 Pb
0.508950 0.490801 0.497666 Pb
0.469721 0.748895 0.962879 Br
0.976221 0.750368 0.461091 Br
0.971635 0.250291 0.968882 Br
0.447303 0.249403 0.470651 Br
0.018728 0.749957 0.026813 Br
0.526856 0.249139 0.034541 Br
0.034293 0.253405 0.541593 Br
0.247472 0.471342 0.946076 Br
0.753479 0.467107 0.446613 Br
0.451725 0.538226 0.251438 Br
0.948973 0.534634 0.746377 Br
0.551637 0.029706 0.751584 Br
0.048657 0.035874 0.252612 Br
0.751140 0.969971 0.051236 Br
0.253288 0.963151 0.551560 Br
0.246748 0.024121 0.954954 Br
0.745586 0.036514 0.451680 Br
0.455345 0.961442 0.250643 Br
0.949123 0.966254 0.747329 Br
0.752166 0.528759 0.052516 Br
0.549177 0.464963 0.749927 Br
0.053732 0.467658 0.254133 Br
0.388675 0.649112 0.538027 Br
