Cs7 Pb8 Br24                            
   1.0000000000000000     
     8.4200180000000007    0.0000000000000000    8.0779809999999994
     0.0000000000000000   11.7638079999999992    0.0000000000000000
    -8.4200180000000007    0.0000000000000000    8.0779809999999994
   Cs   Pb   Br   Cs
     6     8    24     1
Direct
  0.2609539999999981  0.2499940000000009  0.2061149999999969
  0.7736579999999975  0.2500020000000021  0.7157559999999989
  0.1976709999999997  0.7500020000000021  0.7603969999999975
  0.2849229999999991  0.2500039999999970  0.7360520000000008
  0.7695330000000027  0.2500039999999970  0.2263120000000001
  0.7375180000000015  0.7500020000000021  0.7859589999999983
  0.9955300000000022  0.9965819999999965  0.0048230000000018
  0.5021699999999996  0.0015849999999986  0.4995230000000035
  0.5011739999999989  0.0009919999999966  0.9918169999999975
  0.0010309999999976  0.9995359999999991  0.4989220000000003
  0.5011650000000003  0.4989890000000017  0.9918229999999966
  0.0010339999999971  0.5004589999999993  0.4989249999999998
  0.9955199999999991  0.5033919999999981  0.0048290000000009
  0.5021830000000023  0.4984260000000020  0.4995219999999989
  0.4639430000000004  0.7499880000000019  0.9404790000000034
  0.9682900000000032  0.7500039999999970  0.4916740000000033
  0.9588540000000023  0.2500059999999991  0.9754810000000020
  0.4601759999999970  0.2500110000000006  0.4883340000000018
  0.0462789999999984  0.7499960000000030  0.0265869999999993
  0.5394629999999978  0.7500190000000018  0.5326670000000036
  0.5399180000000001  0.2499910000000014  0.9982619999999969
  0.0322400000000016  0.2500020000000021  0.5461870000000033
  0.2469090000000023  0.4636899999999997  0.9551820000000006
  0.7490370000000013  0.4505920000000003  0.4630020000000030
  0.4644669999999991  0.4850729999999999  0.2424290000000013
  0.9510999999999967  0.5273830000000004  0.7516589999999965
  0.5595810000000014  0.0266200000000012  0.7472390000000004
  0.0346279999999979  0.0499129999999965  0.2534149999999968
  0.7481889999999964  0.9557920000000024  0.0488229999999987
  0.2539190000000033  0.9773119999999977  0.5592380000000006
  0.2469090000000023  0.0363070000000008  0.9551790000000011
  0.7490420000000029  0.0494160000000008  0.4630099999999970
  0.4644710000000032  0.0149219999999985  0.2424340000000029
  0.9511019999999988  0.9726250000000007  0.7516650000000027
  0.7481909999999985  0.5442010000000010  0.0488160000000022
  0.2539200000000008  0.5227009999999979  0.5592370000000031
  0.5595840000000010  0.4733840000000029  0.7472380000000030
  0.0346320000000020  0.4500829999999993  0.2534169999999989
  0.4707099999999969  0.7499990000000025  0.2561329999999984

  0.00000000E+00  0.00000000E+00  0.00000000E+00
  0.00000000E+00  0.00000000E+00  0.00000000E+00
  0.00000000E+00  0.00000000E+00  0.00000000E+00
  0.00000000E+00  0.00000000E+00  0.00000000E+00
  0.00000000E+00  0.00000000E+00  0.00000000E+00
  0.00000000E+00  0.00000000E+00  0.00000000E+00
  0.00000000E+00  0.00000000E+00  0.00000000E+00
  0.00000000E+00  0.00000000E+00  0.00000000E+00
  0.00000000E+00  0.00000000E+00  0.00000000E+00
  0.00000000E+00  0.00000000E+00  0.00000000E+00
  0.00000000E+00  0.00000000E+00  0.00000000E+00
  0.00000000E+00  0.00000000E+00  0.00000000E+00
  0.00000000E+00  0.00000000E+00  0.00000000E+00
  0.00000000E+00  0.00000000E+00  0.00000000E+00
  0.00000000E+00  0.00000000E+00  0.00000000E+00
  0.00000000E+00  0.00000000E+00  0.00000000E+00
  0.00000000E+00  0.00000000E+00  0.00000000E+00
  0.00000000E+00  0.00000000E+00  0.00000000E+00
  0.00000000E+00  0.00000000E+00  0.00000000E+00
  0.00000000E+00  0.00000000E+00  0.00000000E+00
  0.00000000E+00  0.00000000E+00  0.00000000E+00
  0.00000000E+00  0.00000000E+00  0.00000000E+00
  0.00000000E+00  0.00000000E+00  0.00000000E+00
  0.00000000E+00  0.00000000E+00  0.00000000E+00
  0.00000000E+00  0.00000000E+00  0.00000000E+00
  0.00000000E+00  0.00000000E+00  0.00000000E+00
  0.00000000E+00  0.00000000E+00  0.00000000E+00
  0.00000000E+00  0.00000000E+00  0.00000000E+00
  0.00000000E+00  0.00000000E+00  0.00000000E+00
  0.00000000E+00  0.00000000E+00  0.00000000E+00
  0.00000000E+00  0.00000000E+00  0.00000000E+00
  0.00000000E+00  0.00000000E+00  0.00000000E+00
  0.00000000E+00  0.00000000E+00  0.00000000E+00
  0.00000000E+00  0.00000000E+00  0.00000000E+00
  0.00000000E+00  0.00000000E+00  0.00000000E+00
  0.00000000E+00  0.00000000E+00  0.00000000E+00
  0.00000000E+00  0.00000000E+00  0.00000000E+00
  0.00000000E+00  0.00000000E+00  0.00000000E+00
  0.00000000E+00  0.00000000E+00  0.00000000E+00
