Cs64 Pb64 Br191
1.0
16.840035 0.000000 16.155961
0.000000 23.527616 0.000000
-16.840035 0.000000 16.155961
Cs Pb Br Cs Pb Br
56 56 168 8 8 23
direct
0.884536 0.872922 0.354391 Cs
0.135380 0.874354 0.604018 Cs
0.885339 0.375658 0.353806 Cs
0.135790 0.375233 0.604045 Cs
0.886473 0.875944 0.853750 Cs
0.136018 0.875192 0.103597 Cs
0.382567 0.875431 0.350003 Cs
0.639221 0.878674 0.610542 Cs
0.886449 0.374739 0.853887 Cs
0.135940 0.374956 0.103625 Cs
0.386172 0.875235 0.853500 Cs
0.636123 0.874957 0.103658 Cs
0.386021 0.374897 0.853284 Cs
0.636205 0.375102 0.103920 Cs
0.103266 0.124950 0.386246 Cs
0.352987 0.125013 0.636136 Cs
0.102699 0.625084 0.387063 Cs
0.103492 0.125067 0.886405 Cs
0.353144 0.125047 0.135780 Cs
0.606091 0.125056 0.386146 Cs
0.853767 0.125176 0.635843 Cs
0.103549 0.625090 0.885825 Cs
0.355144 0.625017 0.135964 Cs
0.857334 0.626556 0.638493 Cs
0.603754 0.125013 0.886174 Cs
0.854909 0.125080 0.136136 Cs
0.603677 0.624882 0.888801 Cs
0.852905 0.624890 0.137518 Cs
0.896074 0.874907 0.114290 Cs
0.145892 0.874352 0.364767 Cs
0.896429 0.374992 0.114140 Cs
0.146072 0.375158 0.364233 Cs
0.895900 0.874719 0.614328 Cs
0.146679 0.875243 0.864040 Cs
0.395981 0.875198 0.113708 Cs
0.648882 0.879902 0.359846 Cs
0.895546 0.375406 0.613796 Cs
0.146631 0.374880 0.864085 Cs
0.395599 0.374628 0.113467 Cs
0.393788 0.875129 0.616903 Cs
0.646031 0.875386 0.865079 Cs
0.645984 0.374926 0.864436 Cs
0.113732 0.125021 0.146370 Cs
0.363526 0.124988 0.396316 Cs
0.114017 0.625047 0.146482 Cs
0.113715 0.124968 0.646103 Cs
0.363949 0.125067 0.896829 Cs
0.613700 0.125102 0.145955 Cs
0.864613 0.125020 0.397811 Cs
0.113999 0.625100 0.646809 Cs
0.363590 0.625067 0.897210 Cs
0.614446 0.624847 0.143619 Cs
0.860242 0.625345 0.395839 Cs
0.614513 0.125220 0.646682 Cs
0.864337 0.125129 0.897184 Cs
0.864025 0.624938 0.896497 Cs
0.750246 0.750812 0.249601 Pb
0.996698 0.749124 0.499973 Pb
0.750566 0.249086 0.249702 Pb
0.999953 0.250364 0.500055 Pb
0.750657 0.750891 0.753192 Pb
0.000008 0.750172 0.000097 Pb
0.249265 0.750228 0.249504 Pb
0.500250 0.756209 0.499889 Pb
0.750407 0.249866 0.750451 Pb
0.000034 0.250281 0.000064 Pb
0.249783 0.750227 0.750504 Pb
0.499723 0.750412 0.999838 Pb
0.249825 0.249709 0.750204 Pb
0.499980 0.250098 0.000074 Pb
0.000243 0.749959 0.250026 Pb
0.249554 0.749691 0.500153 Pb
0.000063 0.250137 0.250148 Pb
0.000129 0.750586 0.750519 Pb
0.249814 0.750300 0.999976 Pb
0.499692 0.750828 0.249674 Pb
0.743290 0.749623 0.500879 Pb
1.000015 0.249871 0.750071 Pb
0.249917 0.250169 0.999971 Pb
0.750312 0.250937 0.500215 Pb
0.500245 0.749919 0.750331 Pb
0.750498 0.750097 0.000607 Pb
0.500044 0.249837 0.750288 Pb
0.750153 0.249976 0.000106 Pb
0.000047 -0.000245 0.250265 Pb
0.249739 0.999813 0.500109 Pb
0.000279 0.500219 0.250090 Pb
1.000008 0.000335 0.750026 Pb
0.249899 0.000191 0.999957 Pb
0.499806 0.000403 0.249787 Pb
0.750461 0.999128 0.500289 Pb
0.000229 0.499513 0.750336 Pb
0.249724 0.500162 0.999926 Pb
0.746613 0.502665 0.500391 Pb
0.499944 0.000482 0.750248 Pb
0.750166 0.000390 0.000159 Pb
0.500262 0.500712 0.750265 Pb
0.750387 0.499850 0.000259 Pb
0.750809 0.000806 0.249622 Pb
0.999868 0.999603 0.500013 Pb
0.750666 0.498857 0.249344 Pb
0.998481 0.500694 0.499881 Pb
0.750639 0.001066 0.750724 Pb
0.000051 0.000086 0.000128 Pb
0.249622 0.000412 0.249904 Pb
0.500044 0.000894 0.499998 Pb
0.750554 0.499279 0.751087 Pb
0.000047 0.500311 0.000108 Pb
0.249758 0.000343 0.750210 Pb
0.499956 0.000250 0.000114 Pb
0.249802 0.499787 0.750417 Pb
0.499647 0.499651 0.999837 Pb
0.984898 0.124999 0.231529 Br
0.234445 0.124938 0.481168 Br
0.984250 0.625043 0.230417 Br
0.233529 0.624746 0.481058 Br
0.984222 0.125146 0.730262 Br
0.234337 0.125225 0.980900 Br
0.483700 0.124893 0.230354 Br
0.735407 0.126743 0.483118 Br
0.986039 0.625086 0.733044 Br
0.234036 0.625288 0.980947 Br
0.488186 0.624583 0.231455 Br
0.484381 0.125366 0.729742 Br
0.734097 0.125210 0.980543 Br
0.734516 0.625042 0.981427 Br
0.230535 0.875154 0.235196 Br
0.472632 0.871225 0.484213 Br
0.230821 0.374875 0.234843 Br
0.231493 0.875040 0.733974 Br
0.480489 0.875101 0.984156 Br
0.734311 0.875446 0.231931 Br
0.979889 0.874270 0.484355 Br
0.231490 0.374984 0.734181 Br
0.480129 0.375141 0.983875 Br
0.733603 0.374114 0.232885 Br
0.979711 0.375386 0.484276 Br
0.733917 0.875717 0.739081 Br
0.980363 0.875184 0.984809 Br
0.980608 0.375353 0.984714 Br
0.771451 0.124809 0.266676 Br
0.017999 0.124863 0.515680 Br
0.762097 0.624671 0.266605 Br
0.019077 0.624801 0.517504 Br
0.770643 0.125643 0.766333 Br
0.018930 0.125263 0.015984 Br
0.269726 0.125015 0.265950 Br
0.518411 0.124933 0.514979 Br
0.768072 0.625157 0.764328 Br
0.019869 0.625279 0.015719 Br
0.269912 0.125018 0.766125 Br
0.519125 0.125187 0.015522 Br
0.267536 0.625017 0.767754 Br
0.517355 0.625041 0.016369 Br
0.014720 0.874749 0.271391 Br
0.265814 0.874440 0.519936 Br
0.015336 0.375294 0.270367 Br
0.016120 0.875334 0.769700 Br
0.265577 0.875221 0.019511 Br
0.514436 0.875066 0.271213 Br
0.766212 0.875273 0.519219 Br
0.016068 0.374897 0.769742 Br
0.265319 0.375275 0.019263 Br
0.764706 0.379213 0.517308 Br
0.516139 0.875192 0.767960 Br
0.765438 0.875173 0.019460 Br
0.515758 0.375696 0.767551 Br
0.765672 0.375094 0.019863 Br
0.874047 0.982240 0.224572 Br
0.124014 0.981942 0.474768 Br
0.874331 0.482472 0.224584 Br
0.123551 0.482514 0.475613 Br
0.873956 0.982267 0.724444 Br
0.123940 0.982103 0.974607 Br
0.373986 0.982134 0.224445 Br
0.623231 0.982761 0.474722 Br
0.873800 0.482351 0.724685 Br
0.123857 0.482053 0.974511 Br
0.373719 0.482011 0.224554 Br
0.374051 0.982609 0.725092 Br
0.623814 0.982276 0.974911 Br
0.623740 0.482190 0.975170 Br
0.974429 0.017740 0.374103 Br
0.224606 0.017917 0.623945 Br
0.973437 0.519658 0.374112 Br
0.224587 0.518034 0.623968 Br
0.974572 0.018069 0.873959 Br
0.224444 0.018004 0.124044 Br
0.474473 0.017848 0.374400 Br
0.724738 0.017999 0.624152 Br
0.974449 0.517817 0.874096 Br
0.224496 0.517815 0.123952 Br
0.474662 0.017994 0.873746 Br
0.724660 0.018524 0.124132 Br
0.474603 0.518316 0.873618 Br
0.724699 0.517840 0.123767 Br
0.025577 0.768171 0.126529 Br
0.275263 0.767431 0.376284 Br
0.025427 0.268015 0.126256 Br
0.022467 0.767813 0.626013 Br
0.275670 0.768232 0.876144 Br
0.524382 0.768255 0.126713 Br
0.771298 0.765377 0.376468 Br
0.025415 0.268124 0.626087 Br
0.275569 0.267990 0.876129 Br
0.525332 0.268282 0.126398 Br
0.775752 0.267528 0.376323 Br
0.528796 0.767012 0.625794 Br
0.777889 0.767879 0.877293 Br
0.775463 0.268079 0.876256 Br
0.126236 0.232089 0.275732 Br
0.376547 0.232318 0.525643 Br
0.126192 0.731823 0.276183 Br
0.126160 0.231944 0.775528 Br
0.376149 0.232162 0.025547 Br
0.626128 0.231783 0.275249 Br
0.875790 0.233482 0.526250 Br
0.126285 0.732571 0.775314 Br
0.376082 0.732297 0.025491 Br
0.872288 0.729122 0.521823 Br
0.626071 0.231999 0.775391 Br
0.876035 0.232190 0.025564 Br
0.626248 0.732578 0.778857 Br
0.876079 0.731564 0.026449 Br
0.874137 0.766997 0.224885 Br
0.123933 0.766646 0.476773 Br
0.874007 0.267813 0.224594 Br
0.124038 0.268080 0.474756 Br
0.873811 0.767613 0.725593 Br
0.123859 0.768149 0.974542 Br
0.373750 0.767709 0.224820 Br
0.621950 0.785660 0.477680 Br
0.873864 0.268213 0.724451 Br
0.123922 0.267996 0.974596 Br
0.374014 0.267961 0.224604 Br
0.374403 0.767166 0.725064 Br
0.623816 0.767714 0.975034 Br
0.623804 0.268021 0.974815 Br
0.974476 0.232268 0.374095 Br
0.224560 0.232025 0.623936 Br
0.973524 0.730215 0.374032 Br
0.224870 0.731930 0.624074 Br
0.974570 0.232104 0.873936 Br
0.224482 0.232077 0.124044 Br
0.474493 0.232144 0.374567 Br
0.724545 0.232719 0.624000 Br
0.974493 0.732203 0.874303 Br
0.224487 0.732292 0.123944 Br
0.474672 0.232163 0.873752 Br
0.724582 0.231704 0.124111 Br
0.474546 0.731840 0.873726 Br
0.724473 0.731985 0.123843 Br
0.126246 0.017882 0.275737 Br
0.376485 0.017883 0.525562 Br
0.126256 0.518211 0.276195 Br
0.126196 0.018149 0.775589 Br
0.376164 0.017952 0.025568 Br
0.626149 0.018807 0.274635 Br
0.875865 0.017484 0.525903 Br
0.126198 0.517518 0.775480 Br
0.376046 0.517848 0.025400 Br
0.873248 0.522823 0.523301 Br
0.626127 0.017961 0.775142 Br
0.876047 0.017943 0.025635 Br
0.626235 0.518027 0.777644 Br
0.876019 0.518341 0.025965 Br
0.025389 0.981967 0.126286 Br
0.275097 0.982377 0.376290 Br
0.025564 0.482103 0.126449 Br
0.025427 0.981912 0.626122 Br
0.275568 0.982044 0.876147 Br
0.525376 0.981850 0.126330 Br
0.775864 0.982577 0.376248 Br
0.023995 0.482101 0.625999 Br
0.275638 0.481934 0.876098 Br
0.523598 0.480915 0.126573 Br
0.773408 0.484714 0.376310 Br
0.524671 0.982450 0.625380 Br
0.775706 0.982795 0.876395 Br
0.775993 0.481985 0.876216 Br
0.383004 0.374645 0.351017 Cs
0.637869 0.374455 0.606155 Cs
0.605207 0.622660 0.370535 Cs
0.349759 0.624999 0.638791 Cs
0.395509 0.374973 0.616599 Cs
0.649140 0.371788 0.361687 Cs
0.623495 0.626376 0.655424 Cs
0.359087 0.625361 0.392450 Cs
0.249693 0.249610 0.249870 Pb
0.500050 0.248608 0.500191 Pb
0.499851 0.249668 0.249852 Pb
0.249730 0.250070 0.500112 Pb
0.499269 0.498509 0.249465 Pb
0.249690 0.499993 0.500143 Pb
0.249265 0.499810 0.249558 Pb
0.499710 0.495062 0.499378 Pb
0.485708 0.625534 0.726390 Br
0.731198 0.375113 0.735732 Br
0.476941 0.378937 0.484608 Br
0.267953 0.625003 0.263111 Br
0.514723 0.374469 0.272286 Br
0.266575 0.375255 0.520225 Br
0.374268 0.482945 0.724751 Br
0.622288 0.475864 0.472975 Br
0.476151 0.522975 0.375874 Br
0.724624 0.514924 0.624412 Br
0.525434 0.268096 0.625484 Br
0.275170 0.267695 0.376308 Br
0.625781 0.737733 0.272385 Br
0.378979 0.727495 0.524781 Br
0.374039 0.267615 0.724833 Br
0.623245 0.267956 0.474956 Br
0.479048 0.725533 0.376464 Br
0.725328 0.738399 0.626049 Br
0.625917 0.510570 0.271325 Br
0.377753 0.521831 0.524859 Br
0.528559 0.485548 0.625120 Br
0.275314 0.482507 0.376275 Br
0.704009 0.628555 0.493450 Br
