Cs63 Pb64 Br192
1.0
16.840035 0.000000 16.155961
0.000000 23.527616 0.000000
-16.840035 0.000000 16.155961
Cs Pb Br Cs Pb Br
56 56 168 7 8 24
Selective Dynamics 
Direct
0.886393 0.875060 0.354066 F F F
0.136805 0.874890 0.603821 F F F
0.886477 0.375459 0.354073 F F F
0.138199 0.375793 0.604226 F F F
0.886667 0.875206 0.853905 F F F
0.136936 0.875023 0.103900 F F F
0.388342 0.874800 0.355352 F F F
0.636357 0.875297 0.603346 F F F
0.886674 0.375321 0.854008 F F F
0.136548 0.375565 0.103495 F F F
0.386180 0.874897 0.854309 F F F
0.635854 0.874901 0.104434 F F F
0.386122 0.375629 0.853945 F F F
0.636036 0.375761 0.104544 F F F
0.106852 0.125301 0.387399 F F F
0.353574 0.125479 0.635883 F F F
0.110948 0.625168 0.387200 F F F
0.103837 0.125274 0.886312 F F F
0.354048 0.125565 0.138395 F F F
0.603754 0.125477 0.386252 F F F
0.853945 0.125311 0.636339 F F F
0.104188 0.625286 0.886586 F F F
0.353245 0.625544 0.139540 F F F
0.854181 0.625313 0.635865 F F F
0.603867 0.125246 0.886634 F F F
0.853682 0.125301 0.136319 F F F
0.603388 0.625500 0.886623 F F F
0.854380 0.625241 0.136263 F F F
0.896878 0.875037 0.114392 F F F
0.145451 0.875624 0.364354 F F F
0.897013 0.375470 0.114437 F F F
0.145225 0.375341 0.364007 F F F
0.897141 0.874918 0.613895 F F F
0.146954 0.875043 0.864328 F F F
0.396612 0.874708 0.114650 F F F
0.645957 0.874785 0.364311 F F F
0.897155 0.375695 0.613662 F F F
0.147095 0.375479 0.864329 F F F
0.396612 0.376378 0.114363 F F F
0.397329 0.876101 0.614423 F F F
0.646637 0.875161 0.864243 F F F
0.646162 0.375394 0.864049 F F F
0.114433 0.125321 0.146894 F F F
0.364344 0.126542 0.396313 F F F
0.118311 0.625226 0.149171 F F F
0.114340 0.125341 0.646497 F F F
0.364063 0.125309 0.896661 F F F
0.613858 0.125394 0.147330 F F F
0.864301 0.125299 0.396458 F F F
0.115364 0.625388 0.645422 F F F
0.364235 0.625223 0.896706 F F F
0.614420 0.625367 0.146274 F F F
0.865237 0.625229 0.397141 F F F
0.613918 0.125247 0.646332 F F F
0.864266 0.125229 0.896802 F F F
0.863980 0.625251 0.896367 F F F
0.750042 0.750198 0.250327 F F F
0.002025 0.750311 0.499809 F F F
0.749996 0.250721 0.250240 F F F
0.000375 0.250642 0.500152 F F F
0.750127 0.750609 0.750166 F F F
0.000457 0.749910 0.000503 F F F
0.250878 0.750040 0.253397 F F F
0.499199 0.748847 0.499973 F F F
0.750085 0.250531 0.750087 F F F
0.000218 0.250472 0.000206 F F F
0.250238 0.750452 0.749796 F F F
0.500187 0.750282 0.000936 F F F
0.250193 0.250481 0.750079 F F F
0.500061 0.250505 0.000228 F F F
0.000332 0.750100 0.250245 F F F
0.253970 0.749273 0.499593 F F F
0.000304 0.250385 0.250230 F F F
0.000412 0.750287 0.750157 F F F
0.250466 0.750336 0.000804 F F F
0.499456 0.749573 0.253098 F F F
0.750333 0.750527 0.500191 F F F
0.000239 0.250681 0.750056 F F F
0.250313 0.250408 0.000347 F F F
0.750234 0.250504 0.500116 F F F
0.500019 0.750625 0.749822 F F F
0.750154 0.750485 0.000192 F F F
0.500239 0.250367 0.750150 F F F
0.750141 0.250648 0.000222 F F F
0.000221 0.000514 0.250170 F F F
0.250555 0.999830 0.500193 F F F
0.000625 0.500790 0.250307 F F F
0.000214 0.000357 0.750098 F F F
0.250342 0.000522 0.000291 F F F
0.500083 0.000543 0.250213 F F F
0.750174 0.000415 0.500098 F F F
0.000371 0.500530 0.750067 F F F
0.250476 0.500585 0.000839 F F F
0.751241 0.500916 0.500262 F F F
0.500192 0.000339 0.750158 F F F
0.750111 0.000329 0.000202 F F F
0.500169 0.500739 0.749891 F F F
0.750095 0.500435 0.000183 F F F
0.750126 0.000443 0.250216 F F F
0.000315 0.000512 0.500119 F F F
0.750147 0.500922 0.250413 F F F
0.003166 0.500558 0.499954 F F F
0.750155 0.000562 0.750154 F F F
0.000289 0.000220 0.000292 F F F
0.250259 0.999907 0.250447 F F F
0.500202 0.000314 0.500159 F F F
0.750167 0.500260 0.750313 F F F
0.000473 0.500755 0.000476 F F F
0.250183 0.000462 0.750120 F F F
0.500037 0.000535 0.000280 F F F
0.250340 0.500765 0.749843 F F F
0.500219 0.500555 0.001051 F F F
0.984140 0.125660 0.230435 F F F
0.236576 0.126359 0.482793 F F F
0.985581 0.625600 0.229421 F F F
0.234934 0.625857 0.488452 F F F
0.984638 0.125727 0.730988 F F F
0.234171 0.125676 0.980655 F F F
0.484621 0.126498 0.232850 F F F
0.734710 0.125716 0.480780 F F F
0.985035 0.625626 0.730286 F F F
0.234247 0.625630 0.981812 F F F
0.486244 0.626131 0.228429 F F F
0.484416 0.125623 0.731025 F F F
0.734720 0.125694 0.981126 F F F
0.734483 0.625698 0.980755 F F F
0.230257 0.876428 0.234107 F F F
0.483771 0.875961 0.485453 F F F
0.229044 0.375756 0.233391 F F F
0.230922 0.875935 0.734919 F F F
0.481005 0.875877 0.984878 F F F
0.731069 0.875800 0.234750 F F F
0.981815 0.875880 0.484196 F F F
0.231768 0.375504 0.735347 F F F
0.480944 0.375527 0.984539 F F F
0.730321 0.375917 0.235523 F F F
0.982043 0.375705 0.483905 F F F
0.730988 0.875865 0.734505 F F F
0.981143 0.875441 0.984663 F F F
0.981253 0.375614 0.984652 F F F
0.769605 0.125839 0.266180 F F F
0.020351 0.125812 0.515982 F F F
0.771528 0.625829 0.266178 F F F
0.021500 0.625743 0.514840 F F F
0.770255 0.125780 0.766383 F F F
0.019708 0.125556 0.016171 F F F
0.268551 0.126278 0.266634 F F F
0.519595 0.125989 0.515701 F F F
0.769214 0.625706 0.765821 F F F
0.021373 0.625485 0.017554 F F F
0.269755 0.125685 0.766230 F F F
0.520342 0.125768 0.016480 F F F
0.269987 0.625775 0.765857 F F F
0.520216 0.625655 0.016116 F F F
0.015215 0.875771 0.269010 F F F
0.266179 0.876547 0.521453 F F F
0.015149 0.375464 0.268900 F F F
0.016403 0.875715 0.769917 F F F
0.266717 0.875940 0.018997 F F F
0.516560 0.876271 0.268538 F F F
0.766890 0.876019 0.519907 F F F
0.016456 0.375669 0.770195 F F F
0.266614 0.375399 0.018911 F F F
0.766721 0.375631 0.519132 F F F
0.516145 0.875988 0.770611 F F F
0.766101 0.875739 0.020249 F F F
0.515735 0.375532 0.769092 F F F
0.766246 0.375694 0.020338 F F F
0.874061 0.982325 0.224602 F F F
0.124137 0.982737 0.474806 F F F
0.874089 0.482276 0.224744 F F F
0.126663 0.482242 0.476207 F F F
0.874164 0.982099 0.724556 F F F
0.124180 0.982233 0.974615 F F F
0.374291 0.982293 0.224642 F F F
0.624481 0.982520 0.474500 F F F
0.874271 0.482084 0.724836 F F F
0.124181 0.482217 0.974764 F F F
0.375423 0.481240 0.226159 F F F
0.374214 0.982550 0.724997 F F F
0.624182 0.982218 0.974675 F F F
0.624350 0.482152 0.974791 F F F
0.974778 0.018328 0.374100 F F F
0.224698 0.018358 0.624361 F F F
0.976229 0.518540 0.374174 F F F
0.224986 0.517585 0.624615 F F F
0.974590 0.018181 0.874104 F F F
0.224761 0.018343 0.124060 F F F
0.474598 0.018304 0.374203 F F F
0.724702 0.018438 0.624200 F F F
0.974683 0.518448 0.874084 F F F
0.226780 0.516239 0.124832 F F F
0.474654 0.018418 0.874225 F F F
0.724528 0.018330 0.124085 F F F
0.474764 0.518146 0.874261 F F F
0.724730 0.518197 0.124137 F F F
0.025849 0.768422 0.126129 F F F
0.270799 0.777403 0.376803 F F F
0.025895 0.268215 0.126150 F F F
0.025831 0.768277 0.626382 F F F
0.275687 0.768142 0.876547 F F F
0.525458 0.768142 0.126281 F F F
0.775896 0.768273 0.376213 F F F
0.026375 0.268926 0.626320 F F F
0.275857 0.268059 0.876344 F F F
0.525806 0.268291 0.126211 F F F
0.775892 0.268260 0.376239 F F F
0.527205 0.769031 0.627018 F F F
0.776172 0.768538 0.876335 F F F
0.775904 0.268458 0.876249 F F F
0.126123 0.232210 0.275837 F F F
0.376588 0.233730 0.526410 F F F
0.125671 0.733699 0.276339 F F F
0.126100 0.232287 0.775792 F F F
0.376268 0.231818 0.026129 F F F
0.626282 0.232354 0.275820 F F F
0.876363 0.232237 0.525806 F F F
0.126112 0.732190 0.775860 F F F
0.376308 0.731612 0.026408 F F F
0.876769 0.732504 0.525556 F F F
0.626330 0.232136 0.776101 F F F
0.876191 0.232276 0.025762 F F F
0.626533 0.732993 0.777031 F F F
0.876244 0.732071 0.025684 F F F
0.874036 0.768202 0.224605 F F F
0.125363 0.768306 0.476083 F F F
0.874065 0.268212 0.224591 F F F
0.124175 0.268128 0.474624 F F F
0.874174 0.768250 0.724742 F F F
0.124121 0.768186 0.974661 F F F
0.374321 0.768678 0.225417 F F F
0.624886 0.769118 0.476101 F F F
0.874081 0.268515 0.724441 F F F
0.124101 0.268163 0.974529 F F F
0.374319 0.270386 0.225733 F F F
0.374261 0.768982 0.725385 F F F
0.624320 0.768263 0.974709 F F F
0.624171 0.268285 0.974642 F F F
0.974837 0.232166 0.374203 F F F
0.224690 0.232218 0.624333 F F F
0.975155 0.732317 0.374092 F F F
0.224428 0.734327 0.624820 F F F
0.974613 0.232218 0.874093 F F F
0.224851 0.232301 0.124287 F F F
0.475055 0.234163 0.374499 F F F
0.724721 0.232097 0.624243 F F F
0.974684 0.731988 0.874178 F F F
0.225732 0.735388 0.124910 F F F
0.474682 0.232134 0.874268 F F F
0.724582 0.232271 0.124118 F F F
0.474729 0.732254 0.874319 F F F
0.724833 0.732237 0.124050 F F F
0.126085 0.018349 0.275827 F F F
0.376476 0.018261 0.525831 F F F
0.126211 0.517235 0.275696 F F F
0.126151 0.018306 0.775862 F F F
0.376324 0.019332 0.026469 F F F
0.626348 0.018375 0.275895 F F F
0.876316 0.018443 0.525835 F F F
0.126209 0.518250 0.775919 F F F
0.376399 0.519463 0.026682 F F F
0.878352 0.518234 0.525567 F F F
0.626382 0.018552 0.776040 F F F
0.876226 0.018195 0.025814 F F F
0.626704 0.517937 0.777729 F F F
0.876298 0.518369 0.025710 F F F
0.025867 0.982181 0.126118 F F F
0.276477 0.982593 0.376293 F F F
0.025780 0.482076 0.126024 F F F
0.025841 0.982194 0.626246 F F F
0.275921 0.982401 0.876262 F F F
0.525977 0.982721 0.126169 F F F
0.775859 0.982241 0.376191 F F F
0.026578 0.482045 0.626452 F F F
0.275744 0.482519 0.876399 F F F
0.525510 0.482411 0.126333 F F F
0.776833 0.482943 0.376274 F F F
0.526541 0.982967 0.626454 F F F
0.775862 0.982162 0.876226 F F F
0.776249 0.482096 0.876427 F F F
0.389744 0.377332 0.357548 F F F
0.636156 0.375736 0.602458 T T T
0.602639 0.626423 0.388395 F F F
0.353615 0.625449 0.634777 F F F
0.399878 0.375138 0.615171 F F F
0.646370 0.377686 0.365548 F F F
0.616551 0.625255 0.650592 F F F
0.250237 0.252032 0.250438 F F F
0.500449 0.251065 0.500383 F F F
0.500271 0.252148 0.250381 F F F
0.250662 0.252309 0.500261 F F F
0.500019 0.502453 0.253348 F F F
0.254439 0.501829 0.499660 F F F
0.252382 0.500791 0.253435 F F F
0.499752 0.503868 0.500233 F F F
0.484033 0.625858 0.731354 F F F
0.735566 0.625894 0.480965 F F F
0.730443 0.375571 0.734177 F F F
0.487242 0.376569 0.487045 F F F
0.261861 0.625772 0.264449 F F F
0.524631 0.626589 0.521811 F F F
0.517915 0.376419 0.269589 F F F
0.267820 0.375702 0.522770 F F F
0.374507 0.482057 0.725481 F F F
0.626169 0.484378 0.476190 F F F
0.475765 0.518416 0.375120 F F F
0.726337 0.518517 0.624570 F F F
0.527439 0.267321 0.626688 F F F
0.276648 0.270034 0.376434 F F F
0.626596 0.732102 0.276113 F F F
0.377470 0.740015 0.534114 F F F
0.374194 0.267986 0.724882 F F F
0.624619 0.267932 0.474351 F F F
0.475673 0.732852 0.374974 F F F
0.725175 0.732251 0.624442 F F F
0.627004 0.520382 0.277049 F F F
0.378617 0.510755 0.534356 F F F
0.528994 0.484058 0.626996 F F F
0.271118 0.473444 0.376770 F F F
