Cs Pb Br                                
   1.0000000000000000     
     8.4200180000000007    0.0000000000000000    8.0779809999999994
     0.0000000000000000   11.7638079999999992    0.0000000000000000
    -8.4200180000000007    0.0000000000000000    8.0779809999999994
   Cs   Pb   Br
     8     8    24
Selective dynamics
Direct
  0.2721250000000026  0.2500000000000000  0.2082359999999994   F   F   F
  0.6993491759603572  0.2276570851509518  0.7213074420595262   T   T   T
  0.7237091419451573  0.8213321248349601  0.1529058284707219   T   T   T
  0.3070148106629560  0.7817926641563986  0.6613060732990093   T   T   T
  0.2315521351994931  0.2754858243508167  0.7146657073746070   T   T   T
  0.7592967398709405  0.3673707130104233  0.1804273264657965   T   T   T
  0.7296448564976785  0.7696325544028326  0.6702480852836175   T   T   T
  0.2612828848496562  0.7216969701500844  0.1303475887740788   T   T   T
  0.0013660728493647  0.0197303767765575  0.9346258935564862   T   T   T
  0.5107768750153738  0.0206981270906539  0.3904731574420737   T   T   T
  0.4916122371159517  0.0115782437427470  0.9125741524037494   T   T   T
  0.9837030879837698  0.0349303624682875  0.4211122489576695   T   T   T
  0.4785314058950050  0.5140832567385516  0.8941761884226977   T   T   T
  0.0162167178123838  0.5131721827972697  0.4118716266008704   T   T   T
  0.9961752720704311  0.5059250429574291  0.9161382059135477   T   T   T
  0.4994352772606305  0.5312562731259121  0.3989221447915199   T   T   T
  0.5007039278872654  0.7700265951286553  0.9188060135857725   T   T   T
  0.0773686252387265  0.7653011762930646  0.3747315162618534   T   T   T
  0.9891506477497245  0.2813454369513622  0.8615534749721334   T   T   T
  0.5367665780810214  0.2766891382676917  0.4031727721259415   T   T   T
  0.0017872593478998  0.7797286683506783  0.9787801928079531   T   T   T
  0.4761359521159179  0.7781248451513463  0.3628495176310835   T   T   T
  0.4717512367729597  0.2746332610524007  0.9236929487648737   T   T   T
  0.8849531662378851  0.2604805401610832  0.4466208786453336   T   T   T
  0.2407295890854257  0.5959592569997696  0.8775771849748750   T   T   T
  0.7732064501188489  0.5882286951419431  0.3733244421997384   T   T   T
  0.4364914538058215  0.5117026521485997  0.1567251903133950   T   T   T
  0.9377776570852063  0.5443328908088532  0.6624679248705263   T   T   T
  0.4893841506410226  0.0228618487110310  0.6430990831300107   T   T   T
  0.9222834479490061  0.0736053870806117  0.1617884473565709   T   T   T
  0.7352612768732953  0.9977811542067840  0.8900157395822674   T   T   T
  0.2375938696545958  0.0582428970843551  0.3890500988098538   T   T   T
  0.2477539099478960  0.0406673563573250  0.9738234059568356   T   T   T
  0.7410994161451327  0.9450052536359266  0.4249950855170468   T   T   T
  0.5959619727928640  0.1033692599148708  0.1508653653752745   T   T   T
  0.0351040147822772  0.9153658579600190  0.6719156591422717   T   T   T
  0.7419669984586363  0.5547642600575458  0.9589968321724172   T   T   T
  0.2754288588784206  0.4951838059118643  0.5167653739197817   T   T   T
  0.5807135615093557  0.5264968954159954  0.6502213512411288   T   T   T
  0.0534049397249561  0.4267182426851051  0.1510402983028314   T   T   T

  0.00000000E+00  0.00000000E+00  0.00000000E+00
  0.00000000E+00  0.00000000E+00  0.00000000E+00
  0.00000000E+00  0.00000000E+00  0.00000000E+00
  0.00000000E+00  0.00000000E+00  0.00000000E+00
  0.00000000E+00  0.00000000E+00  0.00000000E+00
  0.00000000E+00  0.00000000E+00  0.00000000E+00
  0.00000000E+00  0.00000000E+00  0.00000000E+00
  0.00000000E+00  0.00000000E+00  0.00000000E+00
  0.00000000E+00  0.00000000E+00  0.00000000E+00
  0.00000000E+00  0.00000000E+00  0.00000000E+00
  0.00000000E+00  0.00000000E+00  0.00000000E+00
  0.00000000E+00  0.00000000E+00  0.00000000E+00
  0.00000000E+00  0.00000000E+00  0.00000000E+00
  0.00000000E+00  0.00000000E+00  0.00000000E+00
  0.00000000E+00  0.00000000E+00  0.00000000E+00
  0.00000000E+00  0.00000000E+00  0.00000000E+00
  0.00000000E+00  0.00000000E+00  0.00000000E+00
  0.00000000E+00  0.00000000E+00  0.00000000E+00
  0.00000000E+00  0.00000000E+00  0.00000000E+00
  0.00000000E+00  0.00000000E+00  0.00000000E+00
  0.00000000E+00  0.00000000E+00  0.00000000E+00
  0.00000000E+00  0.00000000E+00  0.00000000E+00
  0.00000000E+00  0.00000000E+00  0.00000000E+00
  0.00000000E+00  0.00000000E+00  0.00000000E+00
  0.00000000E+00  0.00000000E+00  0.00000000E+00
  0.00000000E+00  0.00000000E+00  0.00000000E+00
  0.00000000E+00  0.00000000E+00  0.00000000E+00
  0.00000000E+00  0.00000000E+00  0.00000000E+00
  0.00000000E+00  0.00000000E+00  0.00000000E+00
  0.00000000E+00  0.00000000E+00  0.00000000E+00
  0.00000000E+00  0.00000000E+00  0.00000000E+00
  0.00000000E+00  0.00000000E+00  0.00000000E+00
  0.00000000E+00  0.00000000E+00  0.00000000E+00
  0.00000000E+00  0.00000000E+00  0.00000000E+00
  0.00000000E+00  0.00000000E+00  0.00000000E+00
  0.00000000E+00  0.00000000E+00  0.00000000E+00
  0.00000000E+00  0.00000000E+00  0.00000000E+00
  0.00000000E+00  0.00000000E+00  0.00000000E+00
  0.00000000E+00  0.00000000E+00  0.00000000E+00
  0.00000000E+00  0.00000000E+00  0.00000000E+00
