Cs Pb Br 
 1.0000000000000000
     8.4200180000000007    0.0000000000000000    8.0779809999999994
     0.0000000000000000   11.7638079999999992    0.0000000000000000
    -8.4200180000000007    0.0000000000000000    8.0779809999999994
 Cs  Pb  Br 
   8   8  24
Selective dynamics
Cartesian
  0.5379465300020001  2.9409519999999998  3.8803470311410000   F   F   F
 -0.1848889958037762  2.6781142395554265 11.4760371678888422   T   T   T
  4.8061741739143757  9.6619934207904752  7.0812790753350425   T   T   T
 -2.9831388086382771  9.1968587969443902  7.8220777025479915   T   T   T
 -4.0678249737587837  3.2407623443847369  7.6435297541745895   T   T   T
  4.8740908805208010  4.3216785326777334  7.5910731531108997   T   T   T
  0.5001218827642366  9.0538096005444686 11.3083085857434167   T   T   T
  1.1024775497917305  8.4899045910273543  3.1635835249535389   T   T   T
  0.5619535109692516  0.2321043641670474 -0.5170556792208892   T   T   T
  1.0129594674341205  0.2434887930540876  7.2802806384406633   T   T   T
 -3.5445069040377302  0.1362042363668467 11.3429909749987363   T   T   T
 -3.6829930087651217  0.4109140774473432  3.2700906003215064   T   T   T
 -3.4997365504892173  6.0475767282869972 11.0887058654541111   T   T   T
 -3.3314214537874358  6.0368590293680109  3.4580895124917226   T   T   T
  0.6739135377081593  5.9516050677429453 -0.7083300588014947   T   T   T
  0.8463223846263022  6.2495967958487730  7.2569141865462239   T   T   T
 -3.5204270874189558  9.0584450199872375 11.4667743365303352   T   T   T
  5.9162171050531986  9.0028561000858023 11.7300373531390036   T   T   T
  1.0743704915363994  3.3096937019719141 14.9499527399688468   T   T   T
  1.1248622508303054  3.2549178982665521  7.5928122121242128   T   T   T
  0.1937199143935388  9.1725783465730277 -0.1569757522666109   T   T   T
  0.9538738175181388  9.1537112783901815  6.7773086838923522   T   T   T
  4.6146606500772700  3.2307329534343467  3.1943906173351411   T   T   T
 -4.7292522484895070  3.0642430621912395  2.6784488346597626   T   T   T
 -5.3622682206458663  7.0107502751679629  9.0336608730304100   T   T   T
  3.3670137045550765  6.9198094297403774  9.2616547640626052   T   T   T
  2.3556369743989856  6.0195717529669306  4.7919927800788304   T   T   T
  2.3181129008228099  6.4034276155603331 12.9267534063723826   T   T   T
 -1.2942824984260626  0.2689423987616535  9.1481780452209556   T   T   T
 -2.0166364061016533  0.8658796413820351  0.6791311729124407   T   T   T
  7.1169826384100867 11.7377059241070043  5.0509758586647093   T   T   T
 -1.2752641756993470 12.4489662586641128  5.0620180710204297   T   T   T
 -6.1135182256462119  0.4784029720551761  9.8678783479094250   T   T   T
  2.6616041537664246 -0.6469476372356511  9.4196892286315919   T   T   T
  3.7477214461950754 12.9798241267406009  6.0328570480027830   T   T   T
  3.0580524918792471 10.7681882027969014 13.7892724925887062   T   T   T
  6.5926228935929583  6.5261402405790276  5.6623725055248890   T   T   T
 -2.0320578007055521  5.8252472174564085  6.3993299608534526   T   T   T
 -0.5852568406817459  6.1936083902698327  9.9434688374350184   T   T   T
 -0.8220914766621936  5.0198314770449421  1.6515047483289169   T   T   T
