Cs8 Pb8 Br23                            
   1.0000000000000000     
     8.4564889999999995    0.0000000000000000    8.0403009999999995
     0.0000000000000000   11.7298469999999995    0.0000000000000000
    -8.4564889999999995    0.0000000000000000    8.0403009999999995
   Cs   Pb   Br
     8     8    23
Direct
  0.2726249999999979  0.2462680000000006  0.2009180000000015
  0.7669270000000026  0.2415900000000022  0.7108380000000025
  0.7117739999999984  0.7506610000000009  0.2660580000000010
  0.2173710000000000  0.7578150000000008  0.7742580000000032
  0.2919049999999999  0.2494780000000034  0.7320089999999979
  0.7878600000000020  0.2469239999999999  0.2281210000000016
  0.7325030000000012  0.7537739999999999  0.8031629999999979
  0.2218650000000011  0.7534750000000017  0.2843629999999990
  0.9999219999999980  0.0017070000000032  0.9997800000000012
  0.4991229999999973  0.0053899999999985  0.4984309999999965
  0.5003200000000021  0.0001129999999989  0.0010410000000007
  0.0004509999999982  0.0007179999999991  0.5002550000000028
  0.4996459999999985  0.5003829999999994  0.0002489999999966
  0.0021050000000002  0.4983270000000033  0.4920979999999986
  0.0002479999999991  0.4985110000000006  0.0049449999999993
  0.4989959999999982  0.4943870000000032  0.4992710000000002
  0.4737599999999986  0.7501650000000026  0.9659139999999979
  0.9686939999999993  0.7484510000000029  0.4664959999999994
  0.9624219999999966  0.2519869999999997  0.9677879999999988
  0.4604939999999971  0.2499540000000025  0.4681209999999965
  0.0292340000000024  0.7490420000000029  0.0232519999999994
  0.5301619999999971  0.2505049999999969  0.0329049999999995
  0.0277329999999978  0.2519539999999978  0.5445429999999973
  0.2462030000000013  0.4695850000000021  0.9473529999999997
  0.7479340000000008  0.4671510000000012  0.4530290000000008
  0.4502239999999986  0.5394110000000012  0.2503600000000006
  0.5470269999999999  0.0266990000000007  0.7520809999999969
  0.0486390000000014  0.0374309999999980  0.2525290000000027
  0.7524080000000026  0.9686459999999997  0.0505920000000017
  0.2545479999999998  0.9641620000000017  0.5460890000000020
  0.2476150000000032  0.0335170000000033  0.9505380000000017
  0.7471239999999995  0.0301169999999971  0.4496800000000007
  0.4520660000000021  0.9597029999999975  0.2506500000000003
  0.9500570000000010  0.9659619999999975  0.7474890000000016
  0.7534040000000033  0.5320949999999982  0.0512269999999972
  0.2524519999999981  0.5387229999999974  0.5512540000000001
  0.5548470000000023  0.4700139999999990  0.7519020000000012
  0.0532680000000028  0.4621619999999993  0.2504690000000025
  0.7405830000000009  0.6403589999999966  0.6400039999999976

  0.00000000E+00  0.00000000E+00  0.00000000E+00
  0.00000000E+00  0.00000000E+00  0.00000000E+00
  0.00000000E+00  0.00000000E+00  0.00000000E+00
  0.00000000E+00  0.00000000E+00  0.00000000E+00
  0.00000000E+00  0.00000000E+00  0.00000000E+00
  0.00000000E+00  0.00000000E+00  0.00000000E+00
  0.00000000E+00  0.00000000E+00  0.00000000E+00
  0.00000000E+00  0.00000000E+00  0.00000000E+00
  0.00000000E+00  0.00000000E+00  0.00000000E+00
  0.00000000E+00  0.00000000E+00  0.00000000E+00
  0.00000000E+00  0.00000000E+00  0.00000000E+00
  0.00000000E+00  0.00000000E+00  0.00000000E+00
  0.00000000E+00  0.00000000E+00  0.00000000E+00
  0.00000000E+00  0.00000000E+00  0.00000000E+00
  0.00000000E+00  0.00000000E+00  0.00000000E+00
  0.00000000E+00  0.00000000E+00  0.00000000E+00
  0.00000000E+00  0.00000000E+00  0.00000000E+00
  0.00000000E+00  0.00000000E+00  0.00000000E+00
  0.00000000E+00  0.00000000E+00  0.00000000E+00
  0.00000000E+00  0.00000000E+00  0.00000000E+00
  0.00000000E+00  0.00000000E+00  0.00000000E+00
  0.00000000E+00  0.00000000E+00  0.00000000E+00
  0.00000000E+00  0.00000000E+00  0.00000000E+00
  0.00000000E+00  0.00000000E+00  0.00000000E+00
  0.00000000E+00  0.00000000E+00  0.00000000E+00
  0.00000000E+00  0.00000000E+00  0.00000000E+00
  0.00000000E+00  0.00000000E+00  0.00000000E+00
  0.00000000E+00  0.00000000E+00  0.00000000E+00
  0.00000000E+00  0.00000000E+00  0.00000000E+00
  0.00000000E+00  0.00000000E+00  0.00000000E+00
  0.00000000E+00  0.00000000E+00  0.00000000E+00
  0.00000000E+00  0.00000000E+00  0.00000000E+00
  0.00000000E+00  0.00000000E+00  0.00000000E+00
  0.00000000E+00  0.00000000E+00  0.00000000E+00
  0.00000000E+00  0.00000000E+00  0.00000000E+00
  0.00000000E+00  0.00000000E+00  0.00000000E+00
  0.00000000E+00  0.00000000E+00  0.00000000E+00
  0.00000000E+00  0.00000000E+00  0.00000000E+00
  0.00000000E+00  0.00000000E+00  0.00000000E+00
