Cs8 Pb8 Br23
1.0
8.456489 0.000000 8.040301
0.000000 11.729847 0.000000
-8.456489 0.000000 8.040301
Cs Pb Br
8 8 23
direct
0.272625 0.246268 0.200918 Cs
0.766927 0.241590 0.710838 Cs
0.711774 0.750661 0.266058 Cs
0.217371 0.757815 0.774258 Cs
0.291905 0.249478 0.732009 Cs
0.787860 0.246924 0.228121 Cs
0.732503 0.753774 0.803163 Cs
0.221865 0.753475 0.284363 Cs
-0.000078 0.001707 -0.000220 Pb
0.499123 0.005390 0.498431 Pb
0.500320 0.000113 0.001041 Pb
0.000451 0.000718 0.500255 Pb
0.499646 0.500383 0.000249 Pb
0.002105 0.498327 0.492098 Pb
0.000248 0.498511 0.004945 Pb
0.498996 0.494387 0.499271 Pb
0.473760 0.750165 0.965914 Br
0.968694 0.748451 0.466496 Br
0.962422 0.251987 0.967788 Br
0.460494 0.249954 0.468121 Br
0.029234 0.749042 0.023252 Br
0.530162 0.250505 0.032905 Br
0.027733 0.251954 0.544543 Br
0.246203 0.469585 0.947353 Br
0.747934 0.467151 0.453029 Br
0.450224 0.539411 0.250360 Br
0.547027 0.026699 0.752081 Br
0.048639 0.037431 0.252529 Br
0.752408 0.968646 0.050592 Br
0.254548 0.964162 0.546089 Br
0.247615 0.033517 0.950538 Br
0.747124 0.030117 0.449680 Br
0.452066 0.959703 0.250650 Br
0.950057 0.965962 0.747489 Br
0.753404 0.532095 0.051227 Br
0.252452 0.538723 0.551254 Br
0.554847 0.470014 0.751902 Br
0.053268 0.462162 0.250469 Br
0.740583 0.640359 0.640004 Br
