Cs8 Pb8 Br23
1.0
8.456489 0.000000 8.040301
0.000000 11.729847 0.000000
-8.456489 0.000000 8.040301
Cs Pb Br
8 8 23
direct
0.277727 0.250692 0.215352 Cs
0.771557 0.247529 0.699871 Cs
0.705742 0.750024 0.262925 Cs
0.228304 0.742469 0.772812 Cs
0.233808 0.229828 0.731913 Cs
0.807010 0.250262 0.228565 Cs
0.758838 0.771182 0.816012 Cs
0.216900 0.754855 0.271687 Cs
0.007028 0.005060 0.000670 Pb
0.499792 -0.010179 0.514932 Pb
0.508596 0.009354 0.013068 Pb
-0.002081 -0.005908 0.492396 Pb
0.500422 0.508291 -0.004477 Pb
-0.007129 0.500938 0.492048 Pb
0.001304 0.500014 -0.006721 Pb
0.487144 0.483823 0.484422 Pb
0.483194 0.759060 0.983220 Br
0.963818 0.747949 0.447685 Br
0.968429 0.252541 0.957122 Br
0.459117 0.229272 0.509523 Br
0.032427 0.752623 0.012393 Br
0.536460 0.261899 0.047236 Br
0.011988 0.247751 0.508100 Br
0.252315 0.464078 0.943040 Br
0.730761 0.464059 0.444258 Br
0.449169 0.543479 0.232212 Br
0.945938 0.529557 0.738848 Br
0.558529 0.028048 0.766973 Br
0.060724 0.035825 0.247045 Br
0.759721 0.976587 0.063549 Br
0.253876 0.952203 0.547042 Br
0.255193 0.029215 0.963512 Br
0.745549 0.027515 0.451594 Br
0.452300 0.964481 0.265443 Br
0.969981 0.984643 0.741565 Br
0.753301 0.534746 0.043317 Br
0.239162 0.521225 0.543399 Br
0.054363 0.468501 0.242970 Br
0.523271 0.639197 0.665458 Br
