Cs8 Pb7 Br24
1.0
8.420018 0.000000 8.077981
0.000000 11.763808 0.000000
-8.420018 0.000000 8.077981
Cs Pb Br Pb
8 6 24 1
direct
0.268805 0.266362 0.210840 Cs
0.769056 0.265908 0.710660 Cs
0.706521 0.735662 0.272490 Cs
0.206818 0.735553 0.772568 Cs
0.293485 0.264342 0.727504 Cs
0.793171 0.264458 0.227444 Cs
0.731196 0.733636 0.789148 Cs
0.230944 0.734087 0.289336 Cs
0.000001 0.000010 -0.000003 Pb
0.500001 -0.000009 0.499997 Pb
0.499994 -0.000002 -0.000003 Pb
0.000004 0.000007 0.499999 Pb
0.499956 0.499998 0.000008 Pb
-0.000010 0.500006 0.499997 Pb
0.470219 0.752121 0.956153 Br
0.969809 0.752123 0.456280 Br
0.964434 0.248688 0.969442 Br
0.464711 0.248802 0.469437 Br
0.035566 0.751306 0.030566 Br
0.535286 0.751169 0.530555 Br
0.529771 0.247878 0.043832 Br
0.030203 0.247885 0.543720 Br
0.248939 0.464729 0.954628 Br
0.748982 0.465001 0.454629 Br
0.457232 0.533017 0.248176 Br
0.957645 0.533103 0.748232 Br
0.553120 0.042742 0.752850 Br
0.053292 0.042778 0.252932 Br
0.751345 0.963179 0.054914 Br
0.251350 0.962990 0.554929 Br
0.248652 0.036824 0.945076 Br
0.748662 0.037009 0.445080 Br
0.446876 0.957250 0.247147 Br
0.946707 0.957224 0.747070 Br
0.751083 0.535269 0.045375 Br
0.251038 0.535010 0.545384 Br
0.542766 0.466980 0.751820 Br
0.042374 0.466900 0.251796 Br
0.249995 0.500005 0.249992 Pb
