Cs2 Pb2 Br6                             
   1.0000000000000000     
    -0.0000000000000000   -0.0000000000000000   -6.0171412666043569
    -5.7739700608263380   -5.7739700608263380    0.0000000000000000
    -5.7739700608263380    5.7739700608263380   -0.0000000000000000
   Cs   Pb   Br
     2     2     6
Direct
  0.5000000000000000  0.5000000000000000  0.0000000000000000
  0.5000000000000000  0.0000000000000000  0.5000000000000000
  0.0000000000000000  0.0000000000000000  0.0000000000000000
  0.0000000000000000  0.5000000000000000  0.5000000000000000
  0.0000000000000000  0.8140079202331663  0.3140079202331663
  0.0000000000000000  0.1859920797668337  0.6859920797668337
  0.5000000000000000  0.0000000000000000  0.0000000000000000
  0.5000000000000000  0.5000000000000000  0.5000000000000000
  0.0000000000000000  0.6859920797668337  0.8140079202331663
  0.0000000000000000  0.3140079202331663  0.1859920797668337

 -0.00000000E+00  0.00000000E+00  0.00000000E+00
 -0.00000000E+00  0.00000000E+00  0.00000000E+00
 -0.00000000E+00  0.00000000E+00  0.00000000E+00
 -0.00000000E+00  0.00000000E+00  0.00000000E+00
 -0.00000000E+00  0.00000000E+00  0.00000000E+00
 -0.00000000E+00  0.00000000E+00  0.00000000E+00
 -0.00000000E+00  0.00000000E+00  0.00000000E+00
 -0.00000000E+00  0.00000000E+00  0.00000000E+00
 -0.00000000E+00  0.00000000E+00  0.00000000E+00
 -0.00000000E+00  0.00000000E+00  0.00000000E+00
