Cs7 Pb8 Br24                            
   1.0000000000000000     
     8.4200180000000007    0.0000000000000000    8.0779809999999994
     0.0000000000000000   11.7638079999999992    0.0000000000000000
    -8.4200180000000007    0.0000000000000000    8.0779809999999994
   Cs   Pb   Br   Cs
     6     8    24     1
Direct
  0.2695519999999973  0.2500009999999975  0.1958720000000014
  0.7729280000000003  0.2500009999999975  0.7185910000000035
  0.2103290000000015  0.7500000000000000  0.7623940000000005
  0.2947249999999997  0.2499979999999979  0.7429139999999990
  0.7905039999999985  0.2499979999999979  0.2229389999999967
  0.2481799999999978  0.7500009999999975  0.2678280000000015
  0.9950090000000031  0.9951780000000028  0.9956559999999968
  0.4968429999999984  0.0045769999999976  0.4994420000000019
  0.5065450000000027  0.9951569999999990  0.9993470000000002
  0.0051059999999978  0.0037870000000026  0.5001729999999966
  0.5065480000000022  0.5048490000000001  0.9993490000000023
  0.0051040000000029  0.4962110000000024  0.5001829999999998
  0.9950100000000006  0.5048189999999977  0.9956480000000028
  0.4968459999999979  0.4954249999999973  0.4994379999999978
  0.4531160000000014  0.7500020000000021  0.9733960000000010
  0.0177839999999989  0.7499960000000030  0.4662300000000030
  0.9722289999999987  0.2499990000000025  0.9685270000000017
  0.4472390000000033  0.2500009999999975  0.4679220000000015
  0.0458690000000033  0.7500009999999975  0.0266340000000014
  0.4845869999999977  0.7500020000000021  0.5239329999999995
  0.5292889999999986  0.2500009999999975  0.0278929999999988
  0.0310539999999975  0.2500000000000000  0.5491900000000030
  0.2473910000000004  0.4712439999999987  0.9523750000000035
  0.7469779999999986  0.4492159999999998  0.4580190000000002
  0.4452560000000005  0.5166559999999976  0.2469030000000032
  0.9450479999999999  0.5402910000000034  0.7432190000000034
  0.5459549999999993  0.0426220000000015  0.7496409999999969
  0.0520890000000023  0.0367850000000018  0.2494080000000025
  0.7529409999999999  0.9716710000000006  0.0659800000000033
  0.2505049999999969  0.9863190000000017  0.5629989999999978
  0.2473930000000024  0.0287590000000009  0.9523730000000015
  0.7469800000000006  0.0507849999999976  0.4580169999999981
  0.4452560000000005  0.9833440000000024  0.2469030000000032
  0.9450479999999999  0.9597059999999971  0.7432170000000013
  0.7529430000000019  0.5283299999999969  0.0659810000000007
  0.2505069999999989  0.5136790000000033  0.5629959999999983
  0.5459549999999993  0.4573779999999985  0.7496429999999989
  0.0520870000000002  0.4632110000000011  0.2494060000000005
  0.7346959999999996  0.7499990000000025  0.2936910000000026

  0.00000000E+00  0.00000000E+00  0.00000000E+00
  0.00000000E+00  0.00000000E+00  0.00000000E+00
  0.00000000E+00  0.00000000E+00  0.00000000E+00
  0.00000000E+00  0.00000000E+00  0.00000000E+00
  0.00000000E+00  0.00000000E+00  0.00000000E+00
  0.00000000E+00  0.00000000E+00  0.00000000E+00
  0.00000000E+00  0.00000000E+00  0.00000000E+00
  0.00000000E+00  0.00000000E+00  0.00000000E+00
  0.00000000E+00  0.00000000E+00  0.00000000E+00
  0.00000000E+00  0.00000000E+00  0.00000000E+00
  0.00000000E+00  0.00000000E+00  0.00000000E+00
  0.00000000E+00  0.00000000E+00  0.00000000E+00
  0.00000000E+00  0.00000000E+00  0.00000000E+00
  0.00000000E+00  0.00000000E+00  0.00000000E+00
  0.00000000E+00  0.00000000E+00  0.00000000E+00
  0.00000000E+00  0.00000000E+00  0.00000000E+00
  0.00000000E+00  0.00000000E+00  0.00000000E+00
  0.00000000E+00  0.00000000E+00  0.00000000E+00
  0.00000000E+00  0.00000000E+00  0.00000000E+00
  0.00000000E+00  0.00000000E+00  0.00000000E+00
  0.00000000E+00  0.00000000E+00  0.00000000E+00
  0.00000000E+00  0.00000000E+00  0.00000000E+00
  0.00000000E+00  0.00000000E+00  0.00000000E+00
  0.00000000E+00  0.00000000E+00  0.00000000E+00
  0.00000000E+00  0.00000000E+00  0.00000000E+00
  0.00000000E+00  0.00000000E+00  0.00000000E+00
  0.00000000E+00  0.00000000E+00  0.00000000E+00
  0.00000000E+00  0.00000000E+00  0.00000000E+00
  0.00000000E+00  0.00000000E+00  0.00000000E+00
  0.00000000E+00  0.00000000E+00  0.00000000E+00
  0.00000000E+00  0.00000000E+00  0.00000000E+00
  0.00000000E+00  0.00000000E+00  0.00000000E+00
  0.00000000E+00  0.00000000E+00  0.00000000E+00
  0.00000000E+00  0.00000000E+00  0.00000000E+00
  0.00000000E+00  0.00000000E+00  0.00000000E+00
  0.00000000E+00  0.00000000E+00  0.00000000E+00
  0.00000000E+00  0.00000000E+00  0.00000000E+00
  0.00000000E+00  0.00000000E+00  0.00000000E+00
  0.00000000E+00  0.00000000E+00  0.00000000E+00
