Cs7 Pb8 Br24
1.0
8.420018 0.000000 8.077981
0.000000 11.763808 0.000000
-8.420018 0.000000 8.077981
Cs Pb Br Cs
6 8 24 1
direct
0.269552 0.250001 0.195872 Cs
0.772928 0.250001 0.718591 Cs
0.210329 0.750000 0.762394 Cs
0.294725 0.249998 0.742914 Cs
0.790504 0.249998 0.222939 Cs
0.248180 0.750001 0.267828 Cs
-0.004991 -0.004822 -0.004344 Pb
0.496843 0.004577 0.499442 Pb
0.506545 -0.004843 -0.000653 Pb
0.005106 0.003787 0.500173 Pb
0.506548 0.504849 -0.000651 Pb
0.005104 0.496211 0.500183 Pb
-0.004990 0.504819 -0.004352 Pb
0.496846 0.495425 0.499438 Pb
0.453116 0.750002 0.973396 Br
1.017784 0.749996 0.466230 Br
0.972229 0.249999 0.968527 Br
0.447239 0.250001 0.467922 Br
0.045869 0.750001 0.026634 Br
0.484587 0.750002 0.523933 Br
0.529289 0.250001 0.027893 Br
0.031054 0.250000 0.549190 Br
0.247391 0.471244 0.952375 Br
0.746978 0.449216 0.458019 Br
0.445256 0.516656 0.246903 Br
0.945048 0.540291 0.743219 Br
0.545955 0.042622 0.749641 Br
0.052089 0.036785 0.249408 Br
0.752941 0.971671 0.065980 Br
0.250505 0.986319 0.562999 Br
0.247393 0.028759 0.952373 Br
0.746980 0.050785 0.458017 Br
0.445256 0.983344 0.246903 Br
0.945048 0.959706 0.743217 Br
0.752943 0.528330 0.065981 Br
0.250507 0.513679 0.562996 Br
0.545955 0.457378 0.749643 Br
0.052087 0.463211 0.249406 Br
0.734696 0.749999 1.293691 Cs
