Cs64 Pb64 Br191
1.0
16.840035 0.000000 16.155961
0.000000 23.527616 0.000000
-16.840035 0.000000 16.155961
Cs Pb Br Cs Pb Br
56 56 168 8 8 23
direct
0.885607 0.874942 0.353556 Cs
0.136314 0.874913 0.603454 Cs
0.888786 0.375417 0.353212 Cs
0.136112 0.376161 0.606940 Cs
0.886842 0.874941 0.853906 Cs
0.136011 0.875012 0.103239 Cs
0.387697 0.874838 0.357650 Cs
0.634714 0.874779 0.600744 Cs
0.884968 0.375286 0.853214 Cs
0.136793 0.375210 0.104379 Cs
0.386165 0.874941 0.853386 Cs
0.636319 0.874986 0.104101 Cs
0.386697 0.375279 0.855098 Cs
0.635541 0.375167 0.100157 Cs
0.103706 0.123959 0.385690 Cs
0.353582 0.121766 0.638842 Cs
0.103744 0.625409 0.386418 Cs
0.103881 0.124860 0.886223 Cs
0.353879 0.124555 0.135891 Cs
0.603347 0.117962 0.381322 Cs
0.854002 0.122224 0.637510 Cs
0.103831 0.625362 0.886243 Cs
0.353895 0.625588 0.136039 Cs
0.853934 0.625126 0.635273 Cs
0.604177 0.125609 0.885480 Cs
0.853888 0.124709 0.136374 Cs
0.604055 0.624503 0.885391 Cs
0.853739 0.625421 0.136361 Cs
0.896818 0.874993 0.114016 Cs
0.146792 0.874880 0.363984 Cs
0.894759 0.375136 0.113524 Cs
0.147297 0.376992 0.364371 Cs
0.895102 0.874885 0.612967 Cs
0.146867 0.874976 0.864341 Cs
0.396061 0.874986 0.113433 Cs
0.647319 0.874789 0.364427 Cs
0.904166 0.375951 0.618638 Cs
0.146191 0.375209 0.862308 Cs
0.397469 0.375127 0.114030 Cs
0.397423 0.874788 0.613704 Cs
0.646302 0.874940 0.863914 Cs
0.649320 0.375203 0.866301 Cs
0.113890 0.124724 0.146185 Cs
0.365861 0.125598 0.393749 Cs
0.113799 0.625479 0.146048 Cs
0.114477 0.124683 0.646517 Cs
0.364090 0.124972 0.896776 Cs
0.614022 0.124475 0.145859 Cs
0.863744 0.124544 0.396015 Cs
0.114551 0.625114 0.645999 Cs
0.364112 0.625116 0.896557 Cs
0.613990 0.625500 0.145891 Cs
0.863068 0.624552 0.397217 Cs
0.613266 0.123295 0.646225 Cs
0.864509 0.124322 0.897898 Cs
0.864679 0.625796 0.898494 Cs
0.750542 0.750043 0.249885 Pb
0.000007 0.750212 0.499930 Pb
0.750563 0.250394 0.249563 Pb
0.003333 0.250153 0.499634 Pb
0.750047 0.750901 0.749998 Pb
0.000119 0.750241 0.000049 Pb
0.250120 0.750203 0.250213 Pb
0.500591 0.745641 0.500350 Pb
0.752843 0.247728 0.750927 Pb
0.000129 0.250499 0.000052 Pb
0.250005 0.750375 0.750069 Pb
0.500028 0.750302 0.999841 Pb
0.250123 0.249326 0.750662 Pb
0.500086 0.249563 0.000105 Pb
0.000234 0.750193 0.250132 Pb
0.250177 0.749734 0.499741 Pb
0.000417 0.250184 0.249819 Pb
0.000136 0.750464 0.750027 Pb
0.250051 0.750139 0.000062 Pb
0.499530 0.750966 0.249621 Pb
0.749502 0.747320 0.499802 Pb
0.000317 0.249033 0.750456 Pb
0.249970 0.250432 0.000048 Pb
0.755516 0.252578 0.503214 Pb
0.500250 0.750055 0.750200 Pb
0.750053 0.750469 0.000062 Pb
0.500246 0.250182 0.750753 Pb
0.750344 0.249245 0.000168 Pb
0.000250 0.999823 0.250026 Pb
0.250123 0.999864 0.499820 Pb
0.000252 0.500324 0.249780 Pb
0.000266 0.999452 0.750147 Pb
0.249983 0.000236 0.000024 Pb
0.499425 0.998684 0.249441 Pb
0.749958 0.000540 0.499918 Pb
0.000306 0.501343 0.750461 Pb
0.249999 0.500127 0.000006 Pb
0.747086 0.493424 0.501247 Pb
0.500213 0.999952 0.750321 Pb
0.750071 0.999594 0.000039 Pb
0.500217 0.500508 0.750809 Pb
0.750316 0.500987 0.000186 Pb
0.750668 0.999824 0.249630 Pb
0.000142 0.999575 0.499977 Pb
0.750562 0.499924 0.249659 Pb
0.000657 0.500112 0.499661 Pb
0.750000 0.998921 0.750148 Pb
0.000130 0.000234 0.000055 Pb
0.249929 0.999434 0.249940 Pb
0.500190 0.000969 0.500198 Pb
0.752973 0.503248 0.750864 Pb
0.000173 0.499959 0.000101 Pb
0.249895 0.999542 0.750230 Pb
0.500011 0.999772 0.999811 Pb
0.249908 0.501153 0.750658 Pb
0.500101 0.500605 0.000118 Pb
0.984679 0.125356 0.231156 Br
0.235766 0.125550 0.478811 Br
0.984589 0.625059 0.230722 Br
0.236093 0.624808 0.479100 Br
0.985252 0.124653 0.730313 Br
0.234512 0.125550 0.980759 Br
0.485081 0.124389 0.232351 Br
0.732581 0.128431 0.480315 Br
0.985098 0.625634 0.729944 Br
0.234554 0.625107 0.980661 Br
0.485006 0.625498 0.232424 Br
0.485424 0.125629 0.730698 Br
0.733996 0.124831 0.981349 Br
0.733855 0.625511 0.981338 Br
0.229899 0.875035 0.233874 Br
0.486393 0.875784 0.487420 Br
0.233703 0.375204 0.235409 Br
0.230351 0.875247 0.734096 Br
0.480429 0.875212 0.983832 Br
0.732209 0.875124 0.234704 Br
0.980359 0.875310 0.483986 Br
0.235321 0.375143 0.733561 Br
0.482215 0.375012 0.985122 Br
0.733369 0.375048 0.227408 Br
0.982191 0.374465 0.484900 Br
0.728632 0.875173 0.732558 Br
0.981112 0.875348 0.984559 Br
0.979405 0.375232 0.984048 Br
0.768573 0.125790 0.266477 Br
0.018966 0.125617 0.515855 Br
0.768963 0.624469 0.266642 Br
0.017779 0.624797 0.516007 Br
0.770507 0.123914 0.766901 Br
0.019349 0.125547 0.015486 Br
0.269558 0.124907 0.265500 Br
0.522425 0.130499 0.511944 Br
0.771903 0.626542 0.766773 Br
0.019207 0.625092 0.015435 Br
0.268867 0.124891 0.766968 Br
0.519918 0.124941 0.015139 Br
0.269406 0.625536 0.766227 Br
0.519905 0.625406 0.015195 Br
0.015786 0.875187 0.270152 Br
0.266515 0.875277 0.519072 Br
0.017574 0.375191 0.269410 Br
0.016712 0.875168 0.770131 Br
0.265597 0.875343 0.019037 Br
0.515815 0.875008 0.271326 Br
0.763956 0.874890 0.516229 Br
0.014015 0.375077 0.766591 Br
0.266608 0.375265 0.020271 Br
0.768540 0.373598 0.537964 Br
0.516022 0.875333 0.768415 Br
0.766100 0.875197 0.020349 Br
0.517766 0.375225 0.770527 Br
0.765504 0.375053 0.015419 Br
0.874265 0.982179 0.224418 Br
0.124078 0.982218 0.474487 Br
0.874170 0.482142 0.224826 Br
0.121696 0.483978 0.476641 Br
0.873887 0.981553 0.724397 Br
0.123980 0.982284 0.974524 Br
0.373924 0.981669 0.224507 Br
0.624208 0.983885 0.473356 Br
0.875344 0.486067 0.722283 Br
0.123947 0.481622 0.974343 Br
0.373974 0.484751 0.222508 Br
0.374094 0.981933 0.724417 Br
0.623999 0.981972 0.974561 Br
0.624141 0.482797 0.974261 Br
0.974520 0.018135 0.374039 Br
0.224791 0.018054 0.623771 Br
0.974554 0.517986 0.374066 Br
0.227059 0.518302 0.623972 Br
0.974754 0.017929 0.873847 Br
0.224697 0.018010 0.123932 Br
0.474704 0.017354 0.373922 Br
0.724712 0.018041 0.623698 Br
0.974385 0.518007 0.873840 Br
0.224199 0.518266 0.124085 Br
0.474668 0.018117 0.873761 Br
0.724834 0.018003 0.123907 Br
0.474873 0.518230 0.873981 Br
0.724825 0.518308 0.124664 Br
0.025582 0.768008 0.126229 Br
0.275793 0.768189 0.376175 Br
0.025533 0.268173 0.126277 Br
0.025436 0.768215 0.625949 Br
0.275593 0.768057 0.876029 Br
0.525284 0.768240 0.126112 Br
0.775449 0.767004 0.376169 Br
0.027000 0.266707 0.625686 Br
0.275543 0.268288 0.876079 Br
0.527014 0.266205 0.126242 Br
0.772715 0.274082 0.378097 Br
0.526250 0.765658 0.625971 Br
0.775514 0.768576 0.875961 Br
0.777404 0.263694 0.876610 Br
0.126278 0.232145 0.275907 Br
0.378906 0.226826 0.526177 Br
0.126296 0.731941 0.275604 Br
0.126392 0.232325 0.775678 Br
0.376259 0.232127 0.025505 Br
0.626365 0.232231 0.277234 Br
0.872476 0.232066 0.525740 Br
0.126182 0.732092 0.775341 Br
0.376212 0.732164 0.025359 Br
0.876024 0.732000 0.525219 Br
0.627289 0.235263 0.773747 Br
0.876176 0.231985 0.025968 Br
0.626251 0.731789 0.775407 Br
0.876147 0.732240 0.025640 Br
0.874233 0.767942 0.224475 Br
0.124056 0.767740 0.474569 Br
0.874050 0.267905 0.224999 Br
0.124467 0.267510 0.474791 Br
0.873881 0.768652 0.724356 Br
0.123973 0.767904 0.974581 Br
0.373990 0.768536 0.224509 Br
0.624093 0.766058 0.473495 Br
0.875041 0.264026 0.721301 Br
0.123935 0.268678 0.974289 Br
0.374126 0.265221 0.222777 Br
0.374095 0.768075 0.724423 Br
0.623979 0.768147 0.974588 Br
0.624134 0.267413 0.974401 Br
0.974858 0.232086 0.374647 Br
0.226834 0.231094 0.623538 Br
0.974275 0.731795 0.374019 Br
0.224803 0.732062 0.623767 Br
0.974351 0.232204 0.873654 Br
0.224274 0.232075 0.124083 Br
0.479409 0.235780 0.375632 Br
0.721383 0.232055 0.623588 Br
0.974771 0.732247 0.873881 Br
0.224764 0.732034 0.123979 Br
0.474953 0.232008 0.873721 Br
0.724956 0.231802 0.125222 Br
0.474688 0.732069 0.873851 Br
0.724780 0.732119 0.123916 Br
0.126282 0.017904 0.275469 Br
0.376607 0.018304 0.525008 Br
0.126298 0.518225 0.275763 Br
0.126188 0.017989 0.775417 Br
0.376224 0.018007 0.025329 Br
0.626241 0.014587 0.272394 Br
0.876089 0.018223 0.525141 Br
0.126390 0.517922 0.775798 Br
0.376236 0.518017 0.025592 Br
0.868306 0.514596 0.523302 Br
0.626229 0.018193 0.775561 Br
0.876146 0.017979 0.025580 Br
0.627364 0.515161 0.773174 Br
0.876213 0.518140 0.026091 Br
0.025612 0.982178 0.126213 Br
0.275885 0.982031 0.376128 Br
0.025564 0.481952 0.126184 Br
0.025461 0.981919 0.625970 Br
0.275646 0.982033 0.876002 Br
0.525253 0.981827 0.126031 Br
0.775664 0.983439 0.376152 Br
0.026382 0.484031 0.626000 Br
0.275407 0.481882 0.876323 Br
0.527082 0.483467 0.125523 Br
0.772164 0.475563 0.376798 Br
0.526308 0.984151 0.625981 Br
0.775581 0.981535 0.875956 Br
0.777333 0.486642 0.876687 Br
0.381882 0.375253 0.342068 Cs
0.638936 0.378310 0.635406 Cs
0.603308 0.629281 0.382037 Cs
0.354017 0.625939 0.636599 Cs
0.385693 0.377704 0.621927 Cs
0.645543 0.375889 0.351031 Cs
0.612160 0.625601 0.643656 Cs
0.367989 0.621820 0.396616 Cs
0.249650 0.249273 0.249684 Pb
0.492225 0.254998 0.502585 Pb
0.500026 0.249129 0.249175 Pb
0.249641 0.249845 0.499602 Pb
0.500053 0.500777 0.249116 Pb
0.253305 0.500699 0.500115 Pb
0.249846 0.501334 0.249687 Pb
0.501038 0.487012 0.499853 Pb
0.485377 0.625039 0.730711 Br
0.731624 0.621132 0.480946 Br
0.746939 0.375243 0.747425 Br
0.448098 0.373722 0.484338 Br
0.271021 0.625346 0.266827 Br
0.520319 0.620233 0.510668 Br
0.514108 0.374724 0.262395 Br
0.262064 0.374457 0.520173 Br
0.374376 0.485726 0.728590 Br
0.479862 0.512291 0.374110 Br
0.723198 0.518539 0.624114 Br
0.524113 0.272379 0.625691 Br
0.275898 0.267891 0.376438 Br
0.626293 0.734580 0.273296 Br
0.376547 0.732067 0.525196 Br
0.374464 0.265459 0.726877 Br
0.474576 0.732579 0.373941 Br
0.724453 0.731837 0.623717 Br
0.626342 0.517818 0.275654 Br
0.376177 0.519577 0.525802 Br
0.520614 0.478441 0.626514 Br
0.275984 0.482064 0.376076 Br
0.614450 0.430781 0.488667 Br
