Cs7 Pb8 Br24                            
   1.0000000000000000     
     8.4200180000000007    0.0000000000000000    8.0779809999999994
     0.0000000000000000   11.7638079999999992    0.0000000000000000
    -8.4200180000000007    0.0000000000000000    8.0779809999999994
   Cs   Pb   Br   Cs
     6     8    24     1
Direct
  0.2751230000000007  0.2500000000000000  0.2086850000000027
  0.7713370000000026  0.2500000000000000  0.7085920000000030
  0.2043120000000016  0.7500009999999975  0.7637730000000005
  0.2976310000000026  0.2499990000000025  0.7291280000000029
  0.7850380000000001  0.2500000000000000  0.2244209999999995
  0.7323570000000004  0.7500000000000000  0.7934350000000023
  0.9994909999999990  0.9994370000000004  0.0003940000000000
  0.5026519999999977  0.9976810000000000  0.4966000000000008
  0.4999090000000024  0.9968750000000028  0.0008160000000004
  0.0030330000000021  0.0003239999999991  0.4969919999999988
  0.4999150000000014  0.5031269999999992  0.0008210000000020
  0.0030319999999975  0.4996760000000009  0.4969919999999988
  0.9994930000000011  0.5005600000000001  0.0003969999999995
  0.5026510000000002  0.5023229999999970  0.4965970000000013
  0.4654870000000031  0.7500000000000000  0.9498279999999966
  0.9732429999999965  0.7499990000000025  0.4764559999999989
  0.9585610000000031  0.2500000000000000  0.9673009999999991
  0.4653780000000012  0.2500000000000000  0.4697460000000007
  0.0375960000000006  0.7500009999999975  0.0222589999999983
  0.5362549999999970  0.7500009999999975  0.5390299999999968
  0.5286949999999990  0.2499990000000025  0.0299929999999975
  0.0344079999999991  0.2499990000000025  0.5459490000000002
  0.2477080000000029  0.4627509999999972  0.9485099999999989
  0.7505219999999966  0.4544009999999972  0.4550740000000033
  0.4438280000000034  0.5282359999999997  0.2465329999999994
  0.9493960000000001  0.5321300000000022  0.7476800000000026
  0.5511570000000034  0.0352409999999992  0.7509930000000011
  0.0451580000000007  0.0476889999999983  0.2507420000000025
  0.7515900000000002  0.9645379999999975  0.0501339999999999
  0.2542320000000018  0.9750500000000031  0.5565599999999975
  0.2477069999999983  0.0372490000000028  0.9485110000000034
  0.7505219999999966  0.0455990000000028  0.4550740000000033
  0.4438280000000034  0.9717630000000028  0.2465329999999994
  0.9493980000000022  0.9678710000000024  0.7476789999999980
  0.7515900000000002  0.5354620000000025  0.0501330000000024
  0.2542329999999993  0.5249499999999969  0.5565590000000000
  0.5511559999999989  0.4647610000000029  0.7509930000000011
  0.0451550000000012  0.4523099999999971  0.2507429999999999
  0.4691680000000034  0.7499990000000025  0.2873960000000011

  0.00000000E+00  0.00000000E+00  0.00000000E+00
  0.00000000E+00  0.00000000E+00  0.00000000E+00
  0.00000000E+00  0.00000000E+00  0.00000000E+00
  0.00000000E+00  0.00000000E+00  0.00000000E+00
  0.00000000E+00  0.00000000E+00  0.00000000E+00
  0.00000000E+00  0.00000000E+00  0.00000000E+00
  0.00000000E+00  0.00000000E+00  0.00000000E+00
  0.00000000E+00  0.00000000E+00  0.00000000E+00
  0.00000000E+00  0.00000000E+00  0.00000000E+00
  0.00000000E+00  0.00000000E+00  0.00000000E+00
  0.00000000E+00  0.00000000E+00  0.00000000E+00
  0.00000000E+00  0.00000000E+00  0.00000000E+00
  0.00000000E+00  0.00000000E+00  0.00000000E+00
  0.00000000E+00  0.00000000E+00  0.00000000E+00
  0.00000000E+00  0.00000000E+00  0.00000000E+00
  0.00000000E+00  0.00000000E+00  0.00000000E+00
  0.00000000E+00  0.00000000E+00  0.00000000E+00
  0.00000000E+00  0.00000000E+00  0.00000000E+00
  0.00000000E+00  0.00000000E+00  0.00000000E+00
  0.00000000E+00  0.00000000E+00  0.00000000E+00
  0.00000000E+00  0.00000000E+00  0.00000000E+00
  0.00000000E+00  0.00000000E+00  0.00000000E+00
  0.00000000E+00  0.00000000E+00  0.00000000E+00
  0.00000000E+00  0.00000000E+00  0.00000000E+00
  0.00000000E+00  0.00000000E+00  0.00000000E+00
  0.00000000E+00  0.00000000E+00  0.00000000E+00
  0.00000000E+00  0.00000000E+00  0.00000000E+00
  0.00000000E+00  0.00000000E+00  0.00000000E+00
  0.00000000E+00  0.00000000E+00  0.00000000E+00
  0.00000000E+00  0.00000000E+00  0.00000000E+00
  0.00000000E+00  0.00000000E+00  0.00000000E+00
  0.00000000E+00  0.00000000E+00  0.00000000E+00
  0.00000000E+00  0.00000000E+00  0.00000000E+00
  0.00000000E+00  0.00000000E+00  0.00000000E+00
  0.00000000E+00  0.00000000E+00  0.00000000E+00
  0.00000000E+00  0.00000000E+00  0.00000000E+00
  0.00000000E+00  0.00000000E+00  0.00000000E+00
  0.00000000E+00  0.00000000E+00  0.00000000E+00
  0.00000000E+00  0.00000000E+00  0.00000000E+00
