Cs8 Pb8 Br23
1.0
8.456489 0.000000 8.040301
0.000000 11.729847 0.000000
-8.456489 0.000000 8.040301
Cs Pb Br
8 8 23
direct
0.273003 0.249882 0.201486 Cs
0.770949 0.250269 0.734077 Cs
0.706082 0.750028 0.255727 Cs
0.207748 0.749974 0.783297 Cs
0.289735 0.250076 0.728682 Cs
0.793853 0.250161 0.222133 Cs
0.728771 0.750004 0.798427 Cs
0.228088 0.749977 0.281416 Cs
0.000665 -0.000185 -0.000157 Pb
0.491900 -0.002476 0.501049 Pb
0.499185 0.000798 -0.000781 Pb
0.004750 -0.001759 0.500080 Pb
0.499172 0.499269 -0.000627 Pb
0.004861 0.501801 0.500002 Pb
0.000702 0.500339 -0.000142 Pb
0.491943 0.502576 0.501251 Pb
0.472393 0.750030 0.970408 Br
0.964298 0.749910 0.453730 Br
0.974900 0.250094 0.974751 Br
0.467157 0.250002 0.470532 Br
0.026634 0.750088 0.033134 Br
0.552303 0.749973 0.524077 Br
0.532498 0.250039 0.031116 Br
0.017669 0.249977 0.541042 Br
0.247976 0.467371 0.947839 Br
0.452708 0.532106 0.248454 Br
0.948239 0.534852 0.745779 Br
0.549274 0.030971 0.749535 Br
0.051086 0.036382 0.253804 Br
0.752964 0.975112 0.050047 Br
0.250436 0.958220 0.552241 Br
0.247959 0.032704 0.947558 Br
0.452553 0.967915 0.248362 Br
0.948052 0.965236 0.745965 Br
0.752998 0.524972 0.050038 Br
0.250479 0.541628 0.552178 Br
0.549082 0.469056 0.749580 Br
0.051640 0.463601 0.253737 Br
0.747521 0.250092 0.449885 Br
