Cs8 Pb8 Br23
1.0
8.456489 0.000000 8.040301
0.000000 11.729847 0.000000
-8.456489 0.000000 8.040301
Cs Pb Br
8 8 23
direct
0.268236 0.249384 0.199136 Cs
0.773755 0.241189 0.725908 Cs
0.715310 0.759675 0.254294 Cs
0.202926 0.754232 0.781397 Cs
0.286080 0.246022 0.731108 Cs
0.795564 0.246759 0.225579 Cs
0.735730 0.750389 0.805383 Cs
0.221798 0.752543 0.279017 Cs
0.000851 0.000800 0.000204 Pb
0.500993 0.003227 0.498675 Pb
0.499027 0.000145 -0.000200 Pb
0.001516 0.000116 0.500014 Pb
0.499635 0.499093 0.000158 Pb
0.003546 0.503583 0.500469 Pb
0.000030 0.499268 -0.000103 Pb
0.489184 0.495113 0.501692 Pb
0.472834 0.749541 0.963557 Br
0.967169 0.750291 0.457117 Br
0.973683 0.250228 0.972637 Br
0.462428 0.248170 0.467560 Br
0.019655 0.749947 0.031390 Br
0.529809 0.249862 0.037196 Br
0.022104 0.253075 0.538105 Br
0.247601 0.469616 0.947698 Br
0.454184 0.538752 0.251716 Br
0.947516 0.532165 0.745994 Br
0.547872 0.028809 0.750801 Br
0.050500 0.035138 0.252566 Br
0.752685 0.978325 0.044983 Br
0.256010 0.957674 0.547654 Br
0.248255 0.031280 0.949377 Br
0.748379 0.033563 0.449372 Br
0.452319 0.960743 0.249769 Br
0.951049 0.965382 0.747291 Br
0.752269 0.526398 0.053777 Br
0.248994 0.544415 0.552339 Br
0.549773 0.463183 0.750070 Br
0.050837 0.464911 0.253713 Br
0.652948 0.614711 0.492619 Br
