Cs4 Pb4 Br12                            
   1.0000000000000000     
     8.4200175978786831    0.0000000000000000   -0.0000000000000000
     0.0000000000000000   11.7638077846396136    0.0000000000000000
     0.0000000000000000    0.0000000000000000    8.0779805537102707
   Cs   Pb   Br
     4     4    12
Direct
  0.0638895199216023  0.2500000000000000  0.4803612885409265
  0.4361104800783977  0.7500000000000000  0.9803612885409265
  0.5638895199216023  0.2500000000000000  0.0196387114590735
  0.9361104800783977  0.7500000000000000  0.5196387114590735
  0.0000000000000000  0.0000000000000000  0.0000000000000000
  0.5000000000000000  0.0000000000000000  0.5000000000000000
  0.5000000000000000  0.5000000000000000  0.5000000000000000
  0.0000000000000000  0.5000000000000000  0.0000000000000000
  0.5062935758345475  0.7500000000000000  0.4322546796612698
  0.9937064241654525  0.2500000000000000  0.9322546796612698
  0.0062935758345475  0.7500000000000000  0.0677453203387302
  0.4937064241654525  0.2500000000000000  0.5677453203387302
  0.2989190995449107  0.4655372928851591  0.1974410494336425
  0.2010809004550893  0.5344627071148409  0.6974410494336425
  0.7989190995449107  0.0344627071148409  0.3025589505663575
  0.7010809004550893  0.9655372928851591  0.8025589505663575
  0.2989190995449107  0.0344627071148409  0.1974410494336425
  0.2010809004550893  0.9655372928851591  0.6974410494336425
  0.7010809004550893  0.5344627071148409  0.8025589505663575
  0.7989190995449107  0.4655372928851591  0.3025589505663575

  0.00000000E+00  0.00000000E+00  0.00000000E+00
  0.00000000E+00  0.00000000E+00  0.00000000E+00
  0.00000000E+00  0.00000000E+00  0.00000000E+00
  0.00000000E+00  0.00000000E+00  0.00000000E+00
  0.00000000E+00  0.00000000E+00  0.00000000E+00
  0.00000000E+00  0.00000000E+00  0.00000000E+00
  0.00000000E+00  0.00000000E+00  0.00000000E+00
  0.00000000E+00  0.00000000E+00  0.00000000E+00
  0.00000000E+00  0.00000000E+00  0.00000000E+00
  0.00000000E+00  0.00000000E+00  0.00000000E+00
  0.00000000E+00  0.00000000E+00  0.00000000E+00
  0.00000000E+00  0.00000000E+00  0.00000000E+00
  0.00000000E+00  0.00000000E+00  0.00000000E+00
  0.00000000E+00  0.00000000E+00  0.00000000E+00
  0.00000000E+00  0.00000000E+00  0.00000000E+00
  0.00000000E+00  0.00000000E+00  0.00000000E+00
  0.00000000E+00  0.00000000E+00  0.00000000E+00
  0.00000000E+00  0.00000000E+00  0.00000000E+00
  0.00000000E+00  0.00000000E+00  0.00000000E+00
  0.00000000E+00  0.00000000E+00  0.00000000E+00
