Cs2 Pb2 Br6                             
   1.0000000000000000     
     5.7908270261717503    5.7908270261717503   -0.0000000000000001
     5.7908270261717503    0.0000000000000001   -5.9995277225330987
    -0.0000000000000000    5.7908270261717503   -5.9995277225330987
   Cs   Pb   Br
     2     2     6
Direct
  0.7500000000000000  0.7500000000000000  0.7500000000000000
  0.2500000000000000  0.2500000000000000  0.2500000000000000
  0.0000000000000000  0.0000000000000000  0.0000000000000000
  0.5000000000000000  0.5000000000000000  0.5000000000000000
  0.1880826253914876  0.6880826253914876  0.3119173746085124
  0.8119173746085124  0.3119173746085124  0.6880826253914876
  0.2500000000000000  0.7500000000000000  0.7500000000000000
  0.7500000000000000  0.2500000000000000  0.2500000000000000
  0.3119173746085124  0.1880826253914876  0.8119173746085124
  0.6880826253914876  0.8119173746085124  0.1880826253914876

  0.00000000E+00  0.00000000E+00 -0.00000000E+00
  0.00000000E+00  0.00000000E+00 -0.00000000E+00
  0.00000000E+00  0.00000000E+00 -0.00000000E+00
  0.00000000E+00  0.00000000E+00 -0.00000000E+00
  0.00000000E+00  0.00000000E+00 -0.00000000E+00
  0.00000000E+00  0.00000000E+00 -0.00000000E+00
  0.00000000E+00  0.00000000E+00 -0.00000000E+00
  0.00000000E+00  0.00000000E+00 -0.00000000E+00
  0.00000000E+00  0.00000000E+00 -0.00000000E+00
  0.00000000E+00  0.00000000E+00 -0.00000000E+00
