Cs64 Pb64 Br191
1.0
16.840035 0.000000 16.155961
0.000000 23.527616 0.000000
-16.840035 0.000000 16.155961
Cs Pb Br Cs Pb Br
56 56 168 8 8 23
direct
0.886221 0.874877 0.352859 Cs
0.136567 0.875009 0.606335 Cs
0.888772 0.371835 0.353776 Cs
0.135981 0.375320 0.605101 Cs
0.886432 0.874985 0.853047 Cs
0.136101 0.874980 0.102632 Cs
0.385608 0.877034 0.353223 Cs
0.637123 0.875717 0.605961 Cs
0.885256 0.375666 0.852409 Cs
0.137781 0.374956 0.104875 Cs
0.384459 0.875182 0.850283 Cs
0.636529 0.874318 0.107240 Cs
0.389692 0.375413 0.852955 Cs
0.633599 0.375518 0.100104 Cs
0.104120 0.125147 0.385606 Cs
0.354003 0.125740 0.635345 Cs
0.103327 0.624142 0.388801 Cs
0.103434 0.125003 0.886073 Cs
0.350880 0.124860 0.135062 Cs
0.602497 0.121131 0.388934 Cs
0.854610 0.124505 0.638168 Cs
0.103535 0.624936 0.885455 Cs
0.368080 0.625412 0.139660 Cs
0.854056 0.624192 0.633253 Cs
0.603898 0.125163 0.885497 Cs
0.854604 0.125071 0.135186 Cs
0.602810 0.623860 0.885633 Cs
0.850183 0.625521 0.137196 Cs
0.896168 0.874601 0.114470 Cs
0.146179 0.875114 0.364197 Cs
0.898136 0.375331 0.112875 Cs
0.146325 0.375379 0.362468 Cs
0.899562 0.875088 0.614887 Cs
0.146993 0.874870 0.863981 Cs
0.393566 0.875605 0.112046 Cs
0.648275 0.879201 0.360967 Cs
0.886815 0.373798 0.610916 Cs
0.146735 0.375105 0.864496 Cs
0.397117 0.374845 0.115928 Cs
0.395849 0.875111 0.614762 Cs
0.646446 0.874681 0.864591 Cs
0.645574 0.375939 0.863704 Cs
0.113706 0.124791 0.144766 Cs
0.361667 0.123808 0.396987 Cs
0.115022 0.624666 0.143262 Cs
0.113919 0.124815 0.646734 Cs
0.364009 0.125121 0.896759 Cs
0.613726 0.124690 0.144147 Cs
0.865398 0.124534 0.397398 Cs
0.113960 0.624625 0.645489 Cs
0.366552 0.621293 0.896794 Cs
0.614481 0.631863 0.134564 Cs
0.863542 0.625263 0.392597 Cs
0.613617 0.125082 0.644622 Cs
0.864849 0.124871 0.898669 Cs
0.861957 0.625180 0.896848 Cs
0.753109 0.752314 0.249414 Pb
0.999984 0.750108 0.499916 Pb
0.749827 0.249601 0.249750 Pb
1.000169 0.249659 0.500566 Pb
0.750136 0.749706 0.749875 Pb
0.999967 0.749718 0.999723 Pb
0.249945 0.749773 0.249540 Pb
0.500539 0.750975 0.500329 Pb
0.750765 0.248385 0.751651 Pb
1.000045 0.250398 0.999686 Pb
0.250306 0.749260 0.750464 Pb
0.497471 0.752722 0.997105 Pb
0.250309 0.250500 0.750351 Pb
0.499887 0.249899 0.000197 Pb
0.003057 0.749324 0.249824 Pb
0.249762 0.750558 0.500718 Pb
0.999948 0.249645 0.249611 Pb
0.999920 0.749402 0.749996 Pb
0.249888 0.749028 0.999659 Pb
0.499569 0.753400 0.249351 Pb
0.750290 0.752410 0.501072 Pb
0.000225 0.250478 0.750133 Pb
0.250251 0.250604 0.999676 Pb
0.750317 0.247164 0.500709 Pb
0.500025 0.750166 0.749711 Pb
0.750403 0.750992 0.999437 Pb
0.499082 0.249276 0.749914 Pb
0.750088 0.250288 0.000174 Pb
0.000253 0.999927 0.249883 Pb
0.249760 0.999738 0.500374 Pb
0.004365 0.500784 0.249951 Pb
0.000168 0.999912 0.750227 Pb
0.249916 0.000109 0.999675 Pb
0.499497 0.000946 0.249491 Pb
0.750648 0.999475 0.500483 Pb
0.999855 0.499734 0.749904 Pb
0.250465 0.499896 0.000108 Pb
0.746104 0.500947 0.494506 Pb
0.500086 0.999907 0.750104 Pb
0.749904 0.000160 0.999910 Pb
0.500412 0.500200 0.746509 Pb
0.750147 0.500018 0.999684 Pb
0.750981 0.002342 0.249920 Pb
0.000218 0.999728 0.500025 Pb
0.752728 0.496447 0.249497 Pb
1.000540 0.498569 0.499827 Pb
0.750179 -0.000249 0.750276 Pb
-0.000017 0.999588 0.999935 Pb
0.249720 0.999582 0.249788 Pb
0.499422 0.998691 0.500227 Pb
0.750183 0.500401 0.747426 Pb
0.999780 0.500086 0.999404 Pb
0.250153 0.000577 0.750108 Pb
0.499892 0.000331 0.999814 Pb
0.250301 0.499585 0.750146 Pb
0.500574 0.500034 0.004641 Pb
0.984872 0.125150 0.230227 Br
0.233031 0.125227 0.482699 Br
0.984214 0.624027 0.228560 Br
0.233883 0.624682 0.482340 Br
0.985200 0.124985 0.731689 Br
0.234369 0.125286 0.981225 Br
0.482597 0.125445 0.226598 Br
0.735353 0.123663 0.479990 Br
0.984136 0.624550 0.728851 Br
0.234324 0.624191 0.978459 Br
0.503400 0.624061 0.243119 Br
0.484388 0.124716 0.730367 Br
0.734034 0.125634 0.981245 Br
0.731801 0.625514 0.984099 Br
0.229790 0.874220 0.233795 Br
0.477162 0.874794 0.484895 Br
0.235607 0.375754 0.234166 Br
0.233222 0.874794 0.735575 Br
0.476746 0.876239 0.981623 Br
0.739186 0.876534 0.233666 Br
0.980827 0.874318 0.483291 Br
0.229511 0.375036 0.734852 Br
0.482081 0.375400 0.987308 Br
0.719239 0.375551 0.237596 Br
0.977799 0.374357 0.485563 Br
0.731384 0.874635 0.735544 Br
0.980017 0.874597 0.984603 Br
0.979716 0.375266 0.982859 Br
0.773655 0.126665 0.265751 Br
0.020137 0.124638 0.515169 Br
0.753050 0.623616 0.267248 Br
0.015183 0.623622 0.516694 Br
0.770827 0.124284 0.768069 Br
0.018028 0.125045 0.015115 Br
0.268475 0.124621 0.265451 Br
0.513896 0.124096 0.517356 Br
0.770908 0.624575 0.763361 Br
0.019745 0.624671 0.014798 Br
0.270747 0.125378 0.765433 Br
0.519431 0.125156 0.014634 Br
0.270788 0.624363 0.766647 Br
0.513780 0.626250 0.012621 Br
0.016101 0.874341 0.268726 Br
0.265121 0.874920 0.520708 Br
0.016345 0.375491 0.267874 Br
0.016238 0.874497 0.768543 Br
0.264421 0.874605 0.016949 Br
0.515014 0.876701 0.269496 Br
0.768552 0.875089 0.522515 Br
0.016391 0.375192 0.770761 Br
0.266914 0.375011 0.021248 Br
0.750167 0.375179 0.515221 Br
0.516213 0.874833 0.769151 Br
0.765108 0.875531 0.020122 Br
0.519245 0.374842 0.761788 Br
0.766203 0.375769 0.020269 Br
0.874370 0.983305 0.223863 Br
0.123787 0.981880 0.474644 Br
0.869061 0.482857 0.225842 Br
0.122624 0.482198 0.477886 Br
0.874018 0.982018 0.724497 Br
0.123823 0.982234 0.974276 Br
0.373928 0.982014 0.224195 Br
0.623898 0.981698 0.475202 Br
0.873892 0.482143 0.721897 Br
0.124118 0.481652 0.976154 Br
0.382190 0.485418 0.224017 Br
0.374022 0.982583 0.724272 Br
0.623777 0.981780 0.974940 Br
0.624392 0.482738 0.975828 Br
0.974812 0.017550 0.373799 Br
0.224469 0.017805 0.623965 Br
0.976702 0.517880 0.373484 Br
0.225719 0.517951 0.623957 Br
0.974502 0.017579 0.873884 Br
0.224308 0.017527 0.123933 Br
0.474159 0.018149 0.373731 Br
0.724694 0.018339 0.623968 Br
0.973650 0.518661 0.873824 Br
0.228918 0.518500 0.125527 Br
0.474646 0.018253 0.873748 Br
0.724741 0.018119 0.124183 Br
0.479456 0.513524 0.874032 Br
0.723075 0.517537 0.124520 Br
0.026732 0.767317 0.126128 Br
0.274762 0.770530 0.376245 Br
0.025733 0.268269 0.126099 Br
0.025646 0.767688 0.625933 Br
0.276188 0.766908 0.876081 Br
0.521291 0.768068 0.124069 Br
0.773246 0.768050 0.376107 Br
0.025272 0.268015 0.625978 Br
0.276909 0.269293 0.876329 Br
0.525726 0.268065 0.126695 Br
0.776745 0.265761 0.376581 Br
0.526904 0.767259 0.625806 Br
0.775918 0.767641 0.875856 Br
0.775886 0.268141 0.876880 Br
0.125594 0.232678 0.274577 Br
0.373680 0.234676 0.524121 Br
0.127790 0.727976 0.276760 Br
0.126592 0.232119 0.775678 Br
0.376294 0.232154 0.025813 Br
0.626341 0.225715 0.276018 Br
0.876054 0.231851 0.526706 Br
0.126241 0.731947 0.775169 Br
0.375336 0.731795 0.025677 Br
0.875904 0.732441 0.523853 Br
0.626239 0.232558 0.774136 Br
0.876148 0.232854 0.025957 Br
0.626242 0.731742 0.775880 Br
0.875800 0.731292 0.025968 Br
0.877056 0.764526 0.224337 Br
0.124224 0.767458 0.474731 Br
0.873198 0.271120 0.224614 Br
0.122674 0.270964 0.474148 Br
0.873913 0.767764 0.724139 Br
0.123483 0.767600 0.974274 Br
0.374143 0.767989 0.223957 Br
0.624211 0.775847 0.475181 Br
0.874251 0.267882 0.724641 Br
0.124013 0.268099 0.974765 Br
0.374321 0.266706 0.225772 Br
0.374049 0.766906 0.723425 Br
0.623258 0.767684 0.976784 Br
0.623927 0.268078 0.974079 Br
0.974950 0.232090 0.373760 Br
0.223469 0.232189 0.624468 Br
0.975265 0.731429 0.373692 Br
0.224382 0.731974 0.623811 Br
0.974444 0.232226 0.873922 Br
0.224235 0.232117 0.123821 Br
0.474809 0.228131 0.373696 Br
0.726617 0.231461 0.625070 Br
0.973933 0.731504 0.873839 Br
0.225168 0.731978 0.124141 Br
0.474096 0.233304 0.874169 Br
0.724355 0.232245 0.124345 Br
0.472669 0.731995 0.872584 Br
0.727965 0.735186 0.123915 Br
0.126308 0.017899 0.275413 Br
0.375806 0.017546 0.525602 Br
0.127368 0.518364 0.272996 Br
0.126265 0.017779 0.775605 Br
0.376045 0.018097 0.025557 Br
0.626454 0.018348 0.274476 Br
0.876221 0.018198 0.525988 Br
0.126181 0.518051 0.774572 Br
0.376613 0.517215 0.027267 Br
0.866099 0.513614 0.521224 Br
0.626269 0.017936 0.775246 Br
0.876065 0.017511 0.025584 Br
0.626432 0.518020 0.772616 Br
0.876196 0.519171 0.026686 Br
0.025681 0.982037 0.126120 Br
0.274908 0.982363 0.376169 Br
0.025732 0.481691 0.126234 Br
0.025790 0.982180 0.626036 Br
0.275772 0.982871 0.876151 Br
0.525362 0.981510 0.126036 Br
0.776102 0.982378 0.376183 Br
0.022471 0.480958 0.625475 Br
0.276725 0.480554 0.876634 Br
0.527380 0.487619 0.132340 Br
0.781375 0.481416 0.373924 Br
0.525476 0.981857 0.625957 Br
0.775593 0.981821 0.876318 Br
0.773793 0.484247 0.874194 Br
0.383227 0.366008 0.358819 Cs
0.632294 0.370923 0.616737 Cs
0.615341 0.648769 0.378298 Cs
0.353362 0.623928 0.636413 Cs
0.402535 0.377353 0.610689 Cs
0.643529 0.357480 0.371672 Cs
0.613204 0.625165 0.645361 Cs
0.361183 0.636247 0.398971 Cs
0.249733 0.249339 0.249422 Pb
0.497704 0.247707 0.499814 Pb
0.500225 0.247789 0.249802 Pb
0.247343 0.250074 0.500954 Pb
0.500520 0.498347 0.267735 Pb
0.253296 0.499536 0.500275 Pb
0.254967 0.500664 0.250179 Pb
0.502603 0.502654 0.485995 Pb
0.484136 0.625049 0.730849 Br
0.735629 0.625873 0.479844 Br
0.734916 0.374378 0.737167 Br
0.494408 0.375615 0.480797 Br
0.275662 0.624904 0.265003 Br
0.528544 0.626075 0.504687 Br
0.514897 0.374047 0.275378 Br
0.267489 0.375422 0.520851 Br
0.374170 0.480783 0.723466 Br
0.440532 0.511098 0.373542 Br
0.721356 0.514597 0.619416 Br
0.522363 0.264126 0.625641 Br
0.270950 0.264145 0.376313 Br
0.627463 0.748827 0.264485 Br
0.376936 0.731970 0.527249 Br
0.374215 0.270458 0.722938 Br
0.623090 0.254439 0.481264 Br
0.475546 0.738074 0.373297 Br
0.724336 0.731839 0.623661 Br
0.380097 0.517922 0.523136 Br
0.526471 0.487015 0.619487 Br
0.270820 0.477751 0.376381 Br
0.602987 0.499584 0.399769 Br
