Cs8 Pb8 Br23                            
   1.0000000000000000     
     8.4564889999999995    0.0000000000000000    8.0403009999999995
     0.0000000000000000   11.7298469999999995    0.0000000000000000
    -8.4564889999999995    0.0000000000000000    8.0403009999999995
   Cs   Pb   Br
     8     8    23
Direct
  0.2687230000000014  0.2495120000000028  0.2008050000000026
  0.7730249999999970  0.2400239999999982  0.7279669999999996
  0.7169600000000003  0.7609300000000019  0.2512359999999987
  0.2023909999999987  0.7547229999999985  0.7820099999999996
  0.2842059999999975  0.2454180000000008  0.7302139999999966
  0.7963850000000008  0.2471239999999995  0.2259870000000035
  0.7355980000000031  0.7503129999999985  0.8051249999999968
  0.2220370000000003  0.7520200000000017  0.2769890000000004
  0.0009590000000017  0.0011489999999981  0.0000769999999974
  0.5025610000000000  0.0013480000000001  0.4984240000000000
  0.4988359999999972  0.0000199999999992  0.9996700000000018
  0.0025109999999984  0.0013369999999995  0.4999150000000014
  0.4992129999999975  0.4981390000000019  0.0003439999999983
  0.0011450000000011  0.5062479999999994  0.5005570000000006
  0.0000939999999972  0.4993630000000024  0.0001559999999969
  0.4869869999999992  0.4943099999999987  0.5025600000000026
  0.4730399999999975  0.7489849999999976  0.9640270000000015
  0.9689949999999996  0.7526370000000000  0.4547590000000028
  0.9748680000000007  0.2505390000000034  0.9726420000000005
  0.4664780000000022  0.2447829999999982  0.4678589999999971
  0.0173410000000018  0.7503260000000012  0.0316010000000020
  0.5296329999999969  0.2492570000000001  0.0389550000000014
  0.0194979999999987  0.2551890000000014  0.5374040000000022
  0.2474589999999992  0.4696619999999996  0.9477150000000023
  0.4531279999999995  0.5363749999999996  0.2522570000000002
  0.9475380000000015  0.5328439999999972  0.7461660000000023
  0.5475929999999991  0.0276690000000031  0.7503389999999968
  0.0506659999999997  0.0355490000000032  0.2524519999999981
  0.7528289999999984  0.9809910000000031  0.0432670000000002
  0.2571310000000011  0.9580600000000032  0.5472889999999992
  0.2484690000000001  0.0310660000000027  0.9494479999999967
  0.7496269999999967  0.0332629999999980  0.4487719999999982
  0.4528770000000009  0.9598089999999999  0.2492530000000031
  0.9514939999999967  0.9654809999999969  0.7471990000000019
  0.7521460000000033  0.5251120000000000  0.0529530000000022
  0.2449790000000007  0.5457449999999966  0.5519689999999997
  0.5463489999999993  0.4592269999999985  0.7508979999999994
  0.0501069999999970  0.4653009999999966  0.2538049999999998
  0.6563190000000034  0.6218330000000023  0.4980959999999968

  0.00000000E+00  0.00000000E+00  0.00000000E+00
  0.00000000E+00  0.00000000E+00  0.00000000E+00
  0.00000000E+00  0.00000000E+00  0.00000000E+00
  0.00000000E+00  0.00000000E+00  0.00000000E+00
  0.00000000E+00  0.00000000E+00  0.00000000E+00
  0.00000000E+00  0.00000000E+00  0.00000000E+00
  0.00000000E+00  0.00000000E+00  0.00000000E+00
  0.00000000E+00  0.00000000E+00  0.00000000E+00
  0.00000000E+00  0.00000000E+00  0.00000000E+00
  0.00000000E+00  0.00000000E+00  0.00000000E+00
  0.00000000E+00  0.00000000E+00  0.00000000E+00
  0.00000000E+00  0.00000000E+00  0.00000000E+00
  0.00000000E+00  0.00000000E+00  0.00000000E+00
  0.00000000E+00  0.00000000E+00  0.00000000E+00
  0.00000000E+00  0.00000000E+00  0.00000000E+00
  0.00000000E+00  0.00000000E+00  0.00000000E+00
  0.00000000E+00  0.00000000E+00  0.00000000E+00
  0.00000000E+00  0.00000000E+00  0.00000000E+00
  0.00000000E+00  0.00000000E+00  0.00000000E+00
  0.00000000E+00  0.00000000E+00  0.00000000E+00
  0.00000000E+00  0.00000000E+00  0.00000000E+00
  0.00000000E+00  0.00000000E+00  0.00000000E+00
  0.00000000E+00  0.00000000E+00  0.00000000E+00
  0.00000000E+00  0.00000000E+00  0.00000000E+00
  0.00000000E+00  0.00000000E+00  0.00000000E+00
  0.00000000E+00  0.00000000E+00  0.00000000E+00
  0.00000000E+00  0.00000000E+00  0.00000000E+00
  0.00000000E+00  0.00000000E+00  0.00000000E+00
  0.00000000E+00  0.00000000E+00  0.00000000E+00
  0.00000000E+00  0.00000000E+00  0.00000000E+00
  0.00000000E+00  0.00000000E+00  0.00000000E+00
  0.00000000E+00  0.00000000E+00  0.00000000E+00
  0.00000000E+00  0.00000000E+00  0.00000000E+00
  0.00000000E+00  0.00000000E+00  0.00000000E+00
  0.00000000E+00  0.00000000E+00  0.00000000E+00
  0.00000000E+00  0.00000000E+00  0.00000000E+00
  0.00000000E+00  0.00000000E+00  0.00000000E+00
  0.00000000E+00  0.00000000E+00  0.00000000E+00
  0.00000000E+00  0.00000000E+00  0.00000000E+00
