Cs4 Pb4 Br12                            
   1.0000000000000000     
     8.7568183017938299    0.0000000000000000    0.0000000000000000
     0.0000000000000000   11.8214458624860086    0.0000000000000000
     0.0000000000000000    0.0000000000000000    7.7592956389415590
   Cs   Pb   Br
     4     4    12
Direct
  0.0748936115480134  0.2500000000000000  0.4687391448843599
  0.4251063884520008  0.7500000000000000  0.9687391448843599
  0.5748936115480063  0.2500000000000000  0.0312608551156401
  0.9251063884519937  0.7500000000000000  0.5312608551156401
  0.0000000000000000  0.0000000000000000  0.0000000000000000
  0.5000000000000000  0.0000000000000000  0.5000000000000000
  0.5000000000000000  0.5000000000000000  0.5000000000000000
  0.0000000000000000  0.5000000000000000  0.0000000000000000
  0.5114037893281989  0.7500000000000000  0.4377508055262851
  0.9885962106718011  0.2500000000000000  0.9377508055262851
  0.0114037893281989  0.7500000000000000  0.0622491944737149
  0.4885962106718011  0.2500000000000000  0.5622491944737149
  0.3008748840826883  0.4660826757008607  0.1872087763761741
  0.1991251159173189  0.5339173242991322  0.6872087763761741
  0.8008748840826883  0.0339173242991322  0.3127912236238259
  0.6991251159173117  0.9660826757008678  0.8127912236238259
  0.3008748840826883  0.0339173242991322  0.1872087763761741
  0.1991251159173189  0.9660826757008678  0.6872087763761741
  0.6991251159173117  0.5339173242991322  0.8127912236238259
  0.8008748840826883  0.4660826757008607  0.3127912236238259

  0.00000000E+00  0.00000000E+00  0.00000000E+00
  0.00000000E+00  0.00000000E+00  0.00000000E+00
  0.00000000E+00  0.00000000E+00  0.00000000E+00
  0.00000000E+00  0.00000000E+00  0.00000000E+00
  0.00000000E+00  0.00000000E+00  0.00000000E+00
  0.00000000E+00  0.00000000E+00  0.00000000E+00
  0.00000000E+00  0.00000000E+00  0.00000000E+00
  0.00000000E+00  0.00000000E+00  0.00000000E+00
  0.00000000E+00  0.00000000E+00  0.00000000E+00
  0.00000000E+00  0.00000000E+00  0.00000000E+00
  0.00000000E+00  0.00000000E+00  0.00000000E+00
  0.00000000E+00  0.00000000E+00  0.00000000E+00
  0.00000000E+00  0.00000000E+00  0.00000000E+00
  0.00000000E+00  0.00000000E+00  0.00000000E+00
  0.00000000E+00  0.00000000E+00  0.00000000E+00
  0.00000000E+00  0.00000000E+00  0.00000000E+00
  0.00000000E+00  0.00000000E+00  0.00000000E+00
  0.00000000E+00  0.00000000E+00  0.00000000E+00
  0.00000000E+00  0.00000000E+00  0.00000000E+00
  0.00000000E+00  0.00000000E+00  0.00000000E+00
