Cs4 Pb4 Br12                            
   1.0000000000000000     
     8.3419878524615765    0.0000000000000000    0.0000000000000000
     0.0000000000000000   12.2343600960251990    0.0000000000000000
     0.0000000000000000    0.0000000000000000    7.9457685780762910
   Cs   Pb   Br
     4     4    12
Direct
  0.0566495051242200  0.2500000000000000  0.4826019513376423
  0.4433504948757871  0.7500000000000000  0.9826019513376423
  0.5566495051242129  0.2500000000000000  0.0173980486623577
  0.9433504948757871  0.7500000000000000  0.5173980486623577
  0.0000000000000000  0.0000000000000000  0.0000000000000000
  0.5000000000000000  0.0000000000000000  0.5000000000000000
  0.5000000000000000  0.5000000000000000  0.5000000000000000
  0.0000000000000000  0.5000000000000000  0.0000000000000000
  0.5009490434014552  0.7500000000000000  0.4623559608311467
  0.9990509565985448  0.2500000000000000  0.9623559608311467
  0.0009490434014552  0.7500000000000000  0.0376440391688533
  0.4990509565985448  0.2500000000000000  0.5376440391688533
  0.3111610845903172  0.4764354691564137  0.1833459028131799
  0.1888389154096899  0.5235645308435863  0.6833459028131799
  0.8111610845903101  0.0235645308435863  0.3166540971868201
  0.6888389154096899  0.9764354691564137  0.8166540971868201
  0.3111610845903172  0.0235645308435863  0.1833459028131799
  0.1888389154096899  0.9764354691564137  0.6833459028131799
  0.6888389154096899  0.5235645308435863  0.8166540971868201
  0.8111610845903101  0.4764354691564137  0.3166540971868201

  0.00000000E+00  0.00000000E+00  0.00000000E+00
  0.00000000E+00  0.00000000E+00  0.00000000E+00
  0.00000000E+00  0.00000000E+00  0.00000000E+00
  0.00000000E+00  0.00000000E+00  0.00000000E+00
  0.00000000E+00  0.00000000E+00  0.00000000E+00
  0.00000000E+00  0.00000000E+00  0.00000000E+00
  0.00000000E+00  0.00000000E+00  0.00000000E+00
  0.00000000E+00  0.00000000E+00  0.00000000E+00
  0.00000000E+00  0.00000000E+00  0.00000000E+00
  0.00000000E+00  0.00000000E+00  0.00000000E+00
  0.00000000E+00  0.00000000E+00  0.00000000E+00
  0.00000000E+00  0.00000000E+00  0.00000000E+00
  0.00000000E+00  0.00000000E+00  0.00000000E+00
  0.00000000E+00  0.00000000E+00  0.00000000E+00
  0.00000000E+00  0.00000000E+00  0.00000000E+00
  0.00000000E+00  0.00000000E+00  0.00000000E+00
  0.00000000E+00  0.00000000E+00  0.00000000E+00
  0.00000000E+00  0.00000000E+00  0.00000000E+00
  0.00000000E+00  0.00000000E+00  0.00000000E+00
  0.00000000E+00  0.00000000E+00  0.00000000E+00
