Cs8 Pb8 Br23                            
   1.0000000000000000     
     8.4564889999999995    0.0000000000000000    8.0403009999999995
     0.0000000000000000   11.7298469999999995    0.0000000000000000
    -8.4564889999999995    0.0000000000000000    8.0403009999999995
   Cs   Pb   Br
     8     8    23
Direct
  0.2549759999999992  0.2391519999999971  0.1968990000000019
  0.7789100000000033  0.2457259999999977  0.7145319999999984
  0.7472980000000007  0.7604970000000009  0.2619410000000002
  0.1973800000000026  0.7497910000000019  0.7739949999999993
  0.2906079999999989  0.2487479999999991  0.7314220000000020
  0.7921389999999988  0.2477420000000023  0.2280159999999967
  0.7360210000000009  0.7527439999999999  0.8031569999999988
  0.2168530000000004  0.7532429999999977  0.2880930000000035
  0.9991089999999971  0.0003949999999975  0.9986040000000003
  0.4994170000000011  0.0047679999999986  0.4931740000000033
  0.4970709999999983  0.0009239999999977  0.9971999999999994
  0.0030330000000021  0.0002390000000005  0.5031910000000011
  0.5013750000000030  0.5019080000000002  0.9968549999999965
  0.0029329999999987  0.4971820000000022  0.5027740000000023
  0.9997540000000029  0.4988870000000034  0.0004089999999977
  0.5027949999999990  0.4906750000000031  0.5057899999999975
  0.4690099999999973  0.7501060000000024  0.9572950000000020
  0.9748829999999984  0.7486159999999984  0.4797220000000024
  0.9695340000000030  0.2498099999999965  0.9746519999999990
  0.4533610000000010  0.2471499999999978  0.4587890000000030
  0.0211260000000024  0.7496310000000008  0.0312059999999974
  0.5224770000000021  0.2535260000000008  0.0413769999999971
  0.0351780000000019  0.2488939999999999  0.5385360000000006
  0.2483530000000016  0.4691159999999996  0.9537130000000005
  0.7484570000000019  0.4614690000000010  0.4527310000000000
  0.9465950000000021  0.5302000000000007  0.7499930000000035
  0.5485589999999974  0.0351989999999986  0.7461810000000000
  0.0415640000000010  0.0251689999999982  0.2539110000000022
  0.7499719999999996  0.9751440000000002  0.0439229999999995
  0.2553539999999970  0.9594829999999988  0.5488780000000020
  0.2457240000000027  0.0295860000000019  0.9441839999999999
  0.7471630000000005  0.0321149999999975  0.4499300000000019
  0.4441490000000030  0.9652809999999974  0.2442100000000025
  0.9470219999999969  0.9683240000000026  0.7490710000000007
  0.7499380000000002  0.5298129999999972  0.0544200000000004
  0.2580700000000036  0.5369290000000007  0.5520240000000030
  0.5539699999999996  0.4688349999999986  0.7574340000000035
  0.0524249999999995  0.4695370000000025  0.2549470000000014
  0.5001320000000007  0.6554509999999993  0.3714689999999976

  0.00000000E+00  0.00000000E+00  0.00000000E+00
  0.00000000E+00  0.00000000E+00  0.00000000E+00
  0.00000000E+00  0.00000000E+00  0.00000000E+00
  0.00000000E+00  0.00000000E+00  0.00000000E+00
  0.00000000E+00  0.00000000E+00  0.00000000E+00
  0.00000000E+00  0.00000000E+00  0.00000000E+00
  0.00000000E+00  0.00000000E+00  0.00000000E+00
  0.00000000E+00  0.00000000E+00  0.00000000E+00
  0.00000000E+00  0.00000000E+00  0.00000000E+00
  0.00000000E+00  0.00000000E+00  0.00000000E+00
  0.00000000E+00  0.00000000E+00  0.00000000E+00
  0.00000000E+00  0.00000000E+00  0.00000000E+00
  0.00000000E+00  0.00000000E+00  0.00000000E+00
  0.00000000E+00  0.00000000E+00  0.00000000E+00
  0.00000000E+00  0.00000000E+00  0.00000000E+00
  0.00000000E+00  0.00000000E+00  0.00000000E+00
  0.00000000E+00  0.00000000E+00  0.00000000E+00
  0.00000000E+00  0.00000000E+00  0.00000000E+00
  0.00000000E+00  0.00000000E+00  0.00000000E+00
  0.00000000E+00  0.00000000E+00  0.00000000E+00
  0.00000000E+00  0.00000000E+00  0.00000000E+00
  0.00000000E+00  0.00000000E+00  0.00000000E+00
  0.00000000E+00  0.00000000E+00  0.00000000E+00
  0.00000000E+00  0.00000000E+00  0.00000000E+00
  0.00000000E+00  0.00000000E+00  0.00000000E+00
  0.00000000E+00  0.00000000E+00  0.00000000E+00
  0.00000000E+00  0.00000000E+00  0.00000000E+00
  0.00000000E+00  0.00000000E+00  0.00000000E+00
  0.00000000E+00  0.00000000E+00  0.00000000E+00
  0.00000000E+00  0.00000000E+00  0.00000000E+00
  0.00000000E+00  0.00000000E+00  0.00000000E+00
  0.00000000E+00  0.00000000E+00  0.00000000E+00
  0.00000000E+00  0.00000000E+00  0.00000000E+00
  0.00000000E+00  0.00000000E+00  0.00000000E+00
  0.00000000E+00  0.00000000E+00  0.00000000E+00
  0.00000000E+00  0.00000000E+00  0.00000000E+00
  0.00000000E+00  0.00000000E+00  0.00000000E+00
  0.00000000E+00  0.00000000E+00  0.00000000E+00
  0.00000000E+00  0.00000000E+00  0.00000000E+00
