Cs8 Pb8 Br23
1.0
8.456489 0.000000 8.040301
0.000000 11.729847 0.000000
-8.456489 0.000000 8.040301
Cs Pb Br
8 8 23
direct
0.254976 0.239152 0.196899 Cs
0.778910 0.245726 0.714532 Cs
0.747298 0.760497 0.261941 Cs
0.197380 0.749791 0.773995 Cs
0.290608 0.248748 0.731422 Cs
0.792139 0.247742 0.228016 Cs
0.736021 0.752744 0.803157 Cs
0.216853 0.753243 0.288093 Cs
-0.000891 0.000395 -0.001396 Pb
0.499417 0.004768 0.493174 Pb
0.497071 0.000924 -0.002800 Pb
0.003033 0.000239 0.503191 Pb
0.501375 0.501908 -0.003145 Pb
0.002933 0.497182 0.502774 Pb
-0.000246 0.498887 0.000409 Pb
0.502795 0.490675 0.505790 Pb
0.469010 0.750106 0.957295 Br
0.974883 0.748616 0.479722 Br
0.969534 0.249810 0.974652 Br
0.453361 0.247150 0.458789 Br
0.021126 0.749631 0.031206 Br
0.522477 0.253526 0.041377 Br
0.035178 0.248894 0.538536 Br
0.248353 0.469116 0.953713 Br
0.748457 0.461469 0.452731 Br
0.946595 0.530200 0.749993 Br
0.548559 0.035199 0.746181 Br
0.041564 0.025169 0.253911 Br
0.749972 0.975144 0.043923 Br
0.255354 0.959483 0.548878 Br
0.245724 0.029586 0.944184 Br
0.747163 0.032115 0.449930 Br
0.444149 0.965281 0.244210 Br
0.947022 0.968324 0.749071 Br
0.749938 0.529813 0.054420 Br
0.258070 0.536929 0.552024 Br
0.553970 0.468835 0.757434 Br
0.052425 0.469537 0.254947 Br
0.500132 0.655451 0.371469 Br
