Cs1 Pb1 Br3                             
   1.0000000000000000     
     5.9087411282506119    0.0000000000000000   -0.0000000000000000
     0.0000000000000000    5.9087411282506119    0.0000000000000000
     0.0000000000000000    0.0000000000000000    5.9087411282506119
   Cs   Pb   Br
     1     1     3
Direct
  0.5000000000000000  0.5000000000000000  0.5000000000000000
 -0.0000000000000000 -0.0000000000000000  0.0000000000000000
  0.0000000000000000  0.5000000000000000 -0.0000000000000000
 -0.0000000000000000 -0.0000000000000000  0.5000000000000000
  0.5000000000000000  0.0000000000000000 -0.0000000000000000

  0.00000000E+00  0.00000000E+00  0.00000000E+00
  0.00000000E+00  0.00000000E+00  0.00000000E+00
  0.00000000E+00  0.00000000E+00  0.00000000E+00
  0.00000000E+00  0.00000000E+00  0.00000000E+00
  0.00000000E+00  0.00000000E+00  0.00000000E+00
