Cs7 Pb8 Br24                            
   1.0000000000000000     
     8.4200180000000007    0.0000000000000000    8.0779809999999994
     0.0000000000000000   11.7638079999999992    0.0000000000000000
    -8.4200180000000007    0.0000000000000000    8.0779809999999994
   Cs   Pb   Br   Cs
     6     8    24     1
Direct
  0.2708879999999994  0.2500000000000000  0.2023000000000010
  0.7755650000000003  0.2500009999999975  0.7151130000000023
  0.2066149999999993  0.7500000000000000  0.7677219999999991
  0.2913700000000006  0.2499990000000025  0.7286509999999993
  0.7912219999999976  0.2499990000000025  0.2249300000000005
  0.2363860000000031  0.7500009999999975  0.2957620000000034
  0.9991360000000000  0.9968220000000017  0.0000860000000031
  0.5030029999999996  0.0003079999999969  0.4969449999999966
  0.5033639999999977  0.9977179999999990  0.9972950000000012
  0.9996039999999979  0.9994640000000032  0.5004929999999987
  0.5033630000000002  0.5022779999999969  0.9972989999999982
  0.9995990000000035  0.5005340000000018  0.5004970000000029
  0.9991429999999966  0.5031689999999998  0.0000870000000006
  0.5030029999999996  0.4997010000000017  0.4969430000000017
  0.4609310000000022  0.7500029999999995  0.9637639999999976
  0.9778069999999985  0.7499990000000025  0.4625109999999992
  0.9700500000000005  0.2499970000000005  0.9712930000000028
  0.4540080000000017  0.2500009999999975  0.4657010000000028
  0.0502669999999981  0.7499970000000005  0.0345439999999968
  0.5234700000000032  0.7500020000000021  0.5267210000000020
  0.5303719999999998  0.2500009999999975  0.0344979999999993
  0.0327190000000002  0.2499990000000025  0.5414150000000006
  0.2489959999999982  0.4647610000000029  0.9487749999999977
  0.7492790000000014  0.4524370000000033  0.4548789999999983
  0.4434529999999981  0.5249000000000024  0.2457250000000002
  0.9498120000000014  0.5354809999999972  0.7484820000000028
  0.5448560000000029  0.0456300000000027  0.7494190000000032
  0.0514429999999990  0.0373149999999995  0.2523160000000004
  0.7534619999999990  0.9717150000000032  0.0561360000000022
  0.2523619999999980  0.9678809999999984  0.5505530000000007
  0.2489959999999982  0.0352409999999992  0.9487749999999977
  0.7492790000000014  0.0475640000000013  0.4548789999999983
  0.4434520000000006  0.9751010000000022  0.2457229999999981
  0.9498129999999989  0.9645179999999982  0.7484820000000028
  0.7534619999999990  0.5282860000000014  0.0561369999999997
  0.2523630000000026  0.5321199999999990  0.5505520000000033
  0.5448560000000029  0.4543729999999968  0.7494200000000006
  0.0514390000000020  0.4626820000000009  0.2523169999999979
  0.7127369999999971  0.7500009999999975  0.0309140000000028

  0.00000000E+00  0.00000000E+00  0.00000000E+00
  0.00000000E+00  0.00000000E+00  0.00000000E+00
  0.00000000E+00  0.00000000E+00  0.00000000E+00
  0.00000000E+00  0.00000000E+00  0.00000000E+00
  0.00000000E+00  0.00000000E+00  0.00000000E+00
  0.00000000E+00  0.00000000E+00  0.00000000E+00
  0.00000000E+00  0.00000000E+00  0.00000000E+00
  0.00000000E+00  0.00000000E+00  0.00000000E+00
  0.00000000E+00  0.00000000E+00  0.00000000E+00
  0.00000000E+00  0.00000000E+00  0.00000000E+00
  0.00000000E+00  0.00000000E+00  0.00000000E+00
  0.00000000E+00  0.00000000E+00  0.00000000E+00
  0.00000000E+00  0.00000000E+00  0.00000000E+00
  0.00000000E+00  0.00000000E+00  0.00000000E+00
  0.00000000E+00  0.00000000E+00  0.00000000E+00
  0.00000000E+00  0.00000000E+00  0.00000000E+00
  0.00000000E+00  0.00000000E+00  0.00000000E+00
  0.00000000E+00  0.00000000E+00  0.00000000E+00
  0.00000000E+00  0.00000000E+00  0.00000000E+00
  0.00000000E+00  0.00000000E+00  0.00000000E+00
  0.00000000E+00  0.00000000E+00  0.00000000E+00
  0.00000000E+00  0.00000000E+00  0.00000000E+00
  0.00000000E+00  0.00000000E+00  0.00000000E+00
  0.00000000E+00  0.00000000E+00  0.00000000E+00
  0.00000000E+00  0.00000000E+00  0.00000000E+00
  0.00000000E+00  0.00000000E+00  0.00000000E+00
  0.00000000E+00  0.00000000E+00  0.00000000E+00
  0.00000000E+00  0.00000000E+00  0.00000000E+00
  0.00000000E+00  0.00000000E+00  0.00000000E+00
  0.00000000E+00  0.00000000E+00  0.00000000E+00
  0.00000000E+00  0.00000000E+00  0.00000000E+00
  0.00000000E+00  0.00000000E+00  0.00000000E+00
  0.00000000E+00  0.00000000E+00  0.00000000E+00
  0.00000000E+00  0.00000000E+00  0.00000000E+00
  0.00000000E+00  0.00000000E+00  0.00000000E+00
  0.00000000E+00  0.00000000E+00  0.00000000E+00
  0.00000000E+00  0.00000000E+00  0.00000000E+00
  0.00000000E+00  0.00000000E+00  0.00000000E+00
  0.00000000E+00  0.00000000E+00  0.00000000E+00
