Cs8 Pb8 Br23                            
   1.0000000000000000     
     8.4564889999999995    0.0000000000000000    8.0403009999999995
     0.0000000000000000   11.7298469999999995    0.0000000000000000
    -8.4564889999999995    0.0000000000000000    8.0403009999999995
   Cs   Pb   Br
     8     8    23
Direct
  0.2659459999999996  0.2458489999999998  0.1986580000000018
  0.7775630000000007  0.2441889999999987  0.7145379999999975
  0.7208839999999981  0.7524510000000006  0.2633820000000000
  0.2002159999999975  0.7551909999999964  0.7776939999999968
  0.2912790000000030  0.2368129999999979  0.7472599999999971
  0.7927889999999991  0.2491699999999994  0.2257239999999996
  0.7344709999999992  0.7489059999999981  0.8079139999999967
  0.2261170000000021  0.7526500000000027  0.2601689999999977
  0.9953289999999981  0.0008920000000003  0.9995270000000005
  0.4933359999999993  0.0025830000000013  0.5004950000000008
  0.4996310000000008  0.9960650000000015  0.0003600000000006
  0.0002339999999990  0.0046899999999965  0.4998280000000008
  0.5005120000000005  0.4972610000000017  0.0002029999999991
  0.0062730000000002  0.5052880000000002  0.5004959999999983
  0.9999230000000026  0.4986049999999977  0.9997809999999987
  0.5130100000000013  0.4863339999999994  0.4982040000000012
  0.4687399999999968  0.7469809999999981  0.9637069999999994
  0.9811410000000009  0.7544189999999986  0.4573400000000021
  0.9704369999999969  0.2499460000000013  0.9693029999999965
  0.4432779999999994  0.2417779999999965  0.4730009999999965
  0.0111810000000006  0.7495609999999999  0.0257610000000028
  0.5251480000000015  0.2469150000000013  0.0338720000000023
  0.0356700000000032  0.2574269999999999  0.5411429999999982
  0.2472029999999990  0.4714370000000017  0.9472790000000018
  0.7661850000000001  0.4783410000000003  0.4469530000000006
  0.4569970000000012  0.5309110000000032  0.2475930000000020
  0.9501050000000006  0.5354699999999966  0.7462090000000003
  0.5522250000000000  0.0270269999999968  0.7511879999999991
  0.0462470000000010  0.0358269999999976  0.2524250000000023
  0.7489149999999967  0.9713989999999981  0.0522879999999972
  0.2482889999999998  0.9734130000000007  0.5585790000000017
  0.2448789999999974  0.0205640000000002  0.9590159999999983
  0.7407299999999992  0.0371170000000021  0.4532460000000000
  0.4562039999999996  0.9588869999999972  0.2504119999999972
  0.9471520000000027  0.9657600000000031  0.7472210000000032
  0.7520779999999974  0.5267029999999977  0.0524910000000034
  0.5529719999999969  0.4598659999999981  0.7474569999999972
  0.0569139999999990  0.4684760000000026  0.2539179999999988
  0.3689120000000017  0.6605490000000032  0.5355040000000031

  0.00000000E+00  0.00000000E+00  0.00000000E+00
  0.00000000E+00  0.00000000E+00  0.00000000E+00
  0.00000000E+00  0.00000000E+00  0.00000000E+00
  0.00000000E+00  0.00000000E+00  0.00000000E+00
  0.00000000E+00  0.00000000E+00  0.00000000E+00
  0.00000000E+00  0.00000000E+00  0.00000000E+00
  0.00000000E+00  0.00000000E+00  0.00000000E+00
  0.00000000E+00  0.00000000E+00  0.00000000E+00
  0.00000000E+00  0.00000000E+00  0.00000000E+00
  0.00000000E+00  0.00000000E+00  0.00000000E+00
  0.00000000E+00  0.00000000E+00  0.00000000E+00
  0.00000000E+00  0.00000000E+00  0.00000000E+00
  0.00000000E+00  0.00000000E+00  0.00000000E+00
  0.00000000E+00  0.00000000E+00  0.00000000E+00
  0.00000000E+00  0.00000000E+00  0.00000000E+00
  0.00000000E+00  0.00000000E+00  0.00000000E+00
  0.00000000E+00  0.00000000E+00  0.00000000E+00
  0.00000000E+00  0.00000000E+00  0.00000000E+00
  0.00000000E+00  0.00000000E+00  0.00000000E+00
  0.00000000E+00  0.00000000E+00  0.00000000E+00
  0.00000000E+00  0.00000000E+00  0.00000000E+00
  0.00000000E+00  0.00000000E+00  0.00000000E+00
  0.00000000E+00  0.00000000E+00  0.00000000E+00
  0.00000000E+00  0.00000000E+00  0.00000000E+00
  0.00000000E+00  0.00000000E+00  0.00000000E+00
  0.00000000E+00  0.00000000E+00  0.00000000E+00
  0.00000000E+00  0.00000000E+00  0.00000000E+00
  0.00000000E+00  0.00000000E+00  0.00000000E+00
  0.00000000E+00  0.00000000E+00  0.00000000E+00
  0.00000000E+00  0.00000000E+00  0.00000000E+00
  0.00000000E+00  0.00000000E+00  0.00000000E+00
  0.00000000E+00  0.00000000E+00  0.00000000E+00
  0.00000000E+00  0.00000000E+00  0.00000000E+00
  0.00000000E+00  0.00000000E+00  0.00000000E+00
  0.00000000E+00  0.00000000E+00  0.00000000E+00
  0.00000000E+00  0.00000000E+00  0.00000000E+00
  0.00000000E+00  0.00000000E+00  0.00000000E+00
  0.00000000E+00  0.00000000E+00  0.00000000E+00
  0.00000000E+00  0.00000000E+00  0.00000000E+00
