Cs64 Pb64 Br191
1.0
16.840035 0.000000 16.155961
0.000000 23.527616 0.000000
-16.840035 0.000000 16.155961
Cs Pb Br Cs Pb Br
56 56 168 8 8 23
direct
0.885588 0.875158 0.353475 Cs
0.136487 0.874983 0.603402 Cs
0.888905 0.375205 0.353120 Cs
0.135871 0.375412 0.607306 Cs
0.887036 0.875018 0.853895 Cs
0.136056 0.875039 0.103178 Cs
0.388490 0.875022 0.359080 Cs
0.633707 0.875059 0.600326 Cs
0.885126 0.375220 0.853028 Cs
0.137147 0.375111 0.104494 Cs
0.386317 0.874999 0.853224 Cs
0.636421 0.875023 0.104205 Cs
0.386809 0.375116 0.856024 Cs
0.635505 0.375107 0.100218 Cs
0.103822 0.124136 0.385853 Cs
0.353970 0.122055 0.638431 Cs
0.104182 0.625749 0.386160 Cs
0.103942 0.124826 0.886173 Cs
0.354031 0.124398 0.135963 Cs
0.603155 0.118804 0.381379 Cs
0.854119 0.123015 0.636893 Cs
0.103890 0.625325 0.886211 Cs
0.354097 0.625734 0.136071 Cs
0.854040 0.626664 0.636305 Cs
0.604202 0.125654 0.885285 Cs
0.853901 0.124683 0.136375 Cs
0.604212 0.624437 0.885241 Cs
0.853838 0.625444 0.136426 Cs
0.896931 0.875029 0.114036 Cs
0.146924 0.874985 0.363924 Cs
0.894378 0.375078 0.113384 Cs
0.148032 0.375821 0.364522 Cs
0.894995 0.875076 0.612728 Cs
0.146991 0.875013 0.864369 Cs
0.396080 0.875035 0.113354 Cs
0.647264 0.875062 0.364717 Cs
0.903914 0.375487 0.618235 Cs
0.146349 0.375124 0.861857 Cs
0.398068 0.375049 0.113890 Cs
0.398284 0.874993 0.613465 Cs
0.646296 0.874999 0.863713 Cs
0.649870 0.375138 0.866598 Cs
0.113879 0.124632 0.146102 Cs
0.367457 0.127170 0.395119 Cs
0.113780 0.625535 0.146003 Cs
0.114619 0.124776 0.646281 Cs
0.364167 0.124988 0.896643 Cs
0.614076 0.124462 0.145901 Cs
0.863778 0.124800 0.396205 Cs
0.114754 0.625171 0.646141 Cs
0.364183 0.625098 0.896517 Cs
0.614024 0.625592 0.145995 Cs
0.863596 0.625070 0.396617 Cs
0.612100 0.123969 0.644274 Cs
0.864680 0.124257 0.898317 Cs
0.864837 0.625827 0.898956 Cs
0.750560 0.750158 0.249819 Pb
0.000096 0.750374 0.499965 Pb
0.750523 0.250447 0.249666 Pb
0.003619 0.250285 0.499476 Pb
0.749981 0.751030 0.749981 Pb
0.000152 0.750211 0.000046 Pb
0.250186 0.750382 0.250213 Pb
0.500563 0.745715 0.500277 Pb
0.753106 0.247493 0.750980 Pb
0.000170 0.250503 0.000062 Pb
0.250018 0.750468 0.750090 Pb
0.500066 0.750352 0.999813 Pb
0.250012 0.248970 0.750743 Pb
0.500171 0.249395 0.000054 Pb
0.000276 0.750245 0.250103 Pb
0.250264 0.749928 0.499669 Pb
0.000411 0.250163 0.249787 Pb
0.000199 0.750575 0.750050 Pb
0.250074 0.750105 0.000059 Pb
0.499480 0.751227 0.249569 Pb
0.749698 0.748447 0.499876 Pb
0.000305 0.248936 0.750430 Pb
0.249968 0.250401 0.000046 Pb
0.754036 0.253582 0.503173 Pb
0.500280 0.749966 0.750232 Pb
0.750064 0.750537 1.000027 Pb
0.500420 0.250213 0.750791 Pb
0.750366 0.249119 0.000177 Pb
0.000298 0.999896 0.250059 Pb
0.250186 0.000040 0.499717 Pb
0.000325 0.500171 0.249788 Pb
0.000251 0.999459 0.750089 Pb
0.250031 0.000254 0.000033 Pb
0.499449 0.998722 0.249499 Pb
0.749804 0.001620 0.499921 Pb
0.000249 0.501302 0.750419 Pb
0.249976 0.500025 1.000000 Pb
0.751128 0.495660 0.502354 Pb
0.500293 0.000121 0.750289 Pb
0.750074 0.999545 1.000001 Pb
0.500369 0.500160 0.750774 Pb
0.750355 0.501015 0.000209 Pb
0.750660 -0.000011 0.249711 Pb
0.000165 0.999676 0.499978 Pb
0.750541 0.499888 0.249800 Pb
0.002400 0.500204 0.499583 Pb
0.749977 0.999016 0.750032 Pb
0.000171 0.000201 0.000060 Pb
0.250101 0.999512 0.250089 Pb
0.500436 0.003736 0.500259 Pb
0.753108 0.503251 0.750889 Pb
0.000217 0.499802 0.000129 Pb
0.249955 0.999509 0.750164 Pb
0.500053 0.999733 0.999796 Pb
0.249965 0.501192 0.750750 Pb
0.500169 0.500718 1.000053 Pb
0.984714 0.125362 0.231029 Br
0.236005 0.125447 0.478630 Br
0.984662 0.624979 0.230912 Br
0.236745 0.624591 0.478825 Br
0.985357 0.124616 0.730131 Br
0.234575 0.125543 0.980659 Br
0.485276 0.124425 0.232895 Br
0.732594 0.129219 0.480305 Br
0.985381 0.625636 0.729976 Br
0.234615 0.624997 0.980607 Br
0.485177 0.625549 0.233280 Br
0.485715 0.125648 0.730931 Br
0.733988 0.124761 0.981309 Br
0.733832 0.625465 0.981506 Br
0.229827 0.875057 0.233706 Br
0.488104 0.875239 0.488221 Br
0.234362 0.375184 0.235355 Br
0.230353 0.875102 0.734099 Br
0.480486 0.875124 0.983724 Br
0.732357 0.875172 0.234979 Br
0.980369 0.875237 0.483899 Br
0.236446 0.375072 0.733027 Br
0.482923 0.375064 0.985417 Br
0.733013 0.375170 0.227808 Br
0.982722 0.375024 0.484768 Br
0.728299 0.875154 0.732094 Br
0.981222 0.875256 0.984563 Br
0.979178 0.375193 0.984029 Br
0.768773 0.125897 0.266483 Br
0.018574 0.125642 0.515859 Br
0.768967 0.624476 0.266626 Br
0.018541 0.624880 0.515834 Br
0.771335 0.123831 0.766954 Br
0.019396 0.125516 0.015391 Br
0.270393 0.124887 0.266181 Br
0.520788 0.131397 0.510313 Br
0.772123 0.626569 0.767286 Br
0.019196 0.624974 0.015333 Br
0.268873 0.124696 0.766868 Br
0.520118 0.124821 0.015097 Br
0.269356 0.625480 0.766304 Br
0.520107 0.625409 0.015110 Br
0.015849 0.875163 0.270115 Br
0.266815 0.875085 0.519127 Br
0.017914 0.375174 0.269560 Br
0.016906 0.875122 0.770163 Br
0.265628 0.875265 0.018938 Br
0.515952 0.875044 0.271416 Br
0.763581 0.875607 0.516187 Br
0.014205 0.375093 0.766289 Br
0.266989 0.375254 0.020350 Br
0.766950 0.375030 0.538208 Br
0.516163 0.875212 0.767823 Br
0.766223 0.875129 0.020494 Br
0.517857 0.375193 0.771766 Br
0.765340 0.375063 0.015143 Br
0.874324 0.982191 0.224414 Br
0.124142 0.982225 0.474487 Br
0.874205 0.482075 0.224956 Br
0.123255 0.484173 0.476088 Br
0.873919 0.981488 0.724308 Br
0.124011 0.982281 0.974523 Br
0.373985 0.981557 0.224479 Br
0.624438 0.984855 0.473274 Br
0.875401 0.486146 0.721572 Br
0.123984 0.481356 0.974212 Br
0.374121 0.485291 0.221614 Br
0.374134 0.981902 0.724391 Br
0.624053 0.981904 0.974527 Br
0.624222 0.482911 0.974277 Br
0.974529 0.018166 0.374008 Br
0.224843 0.018032 0.623750 Br
0.974797 0.517980 0.374235 Br
0.227561 0.518334 0.623798 Br
0.974821 0.017895 0.873829 Br
0.224791 0.018044 0.123931 Br
0.474703 0.017355 0.373837 Br
0.724479 0.018544 0.623677 Br
0.974374 0.517942 0.873753 Br
0.224177 0.518302 0.124149 Br
0.474695 0.018076 0.873822 Br
0.724879 0.017985 0.123867 Br
0.475141 0.518289 0.873927 Br
0.725040 0.518269 0.125159 Br
0.025645 0.767971 0.126198 Br
0.275991 0.768335 0.376150 Br
0.025622 0.268238 0.126206 Br
0.025513 0.768225 0.625952 Br
0.275686 0.768045 0.876001 Br
0.525336 0.768208 0.126038 Br
0.775576 0.767098 0.376182 Br
0.026826 0.266472 0.625738 Br
0.275407 0.268298 0.876223 Br
0.527484 0.265843 0.125779 Br
0.772362 0.274470 0.378005 Br
0.526081 0.765089 0.625975 Br
0.775577 0.768739 0.875969 Br
0.777704 0.263640 0.876664 Br
0.126398 0.232082 0.275848 Br
0.377899 0.227465 0.526290 Br
0.126350 0.731989 0.275489 Br
0.126331 0.232316 0.775705 Br
0.376298 0.232112 0.025465 Br
0.626425 0.232310 0.276793 Br
0.871155 0.233688 0.525530 Br
0.126211 0.732076 0.775328 Br
0.376262 0.732137 0.025300 Br
0.876191 0.732033 0.525149 Br
0.627533 0.235482 0.773243 Br
0.876251 0.231978 0.026045 Br
0.626301 0.731724 0.775326 Br
0.876186 0.732241 0.025674 Br
0.874308 0.767921 0.224470 Br
0.124160 0.767797 0.474510 Br
0.874137 0.268004 0.224988 Br
0.123844 0.266719 0.475345 Br
0.873919 0.768905 0.724249 Br
0.124003 0.767853 0.974551 Br
0.374020 0.768582 0.224447 Br
0.624360 0.765574 0.473394 Br
0.875283 0.264114 0.721229 Br
0.123953 0.268961 0.974131 Br
0.374117 0.264705 0.221697 Br
0.374142 0.768126 0.724330 Br
0.624028 0.768180 0.974533 Br
0.624229 0.267217 0.974265 Br
0.974773 0.232130 0.374429 Br
0.227270 0.231389 0.623727 Br
0.974496 0.731926 0.374005 Br
0.224890 0.732019 0.623726 Br
0.974357 0.232191 0.873660 Br
0.224207 0.231940 0.124111 Br
0.479689 0.238837 0.374936 Br
0.721674 0.231887 0.623779 Br
0.974808 0.732227 0.873848 Br
0.224832 0.732001 0.123953 Br
0.475137 0.231843 0.873823 Br
0.725050 0.231878 0.125210 Br
0.474718 0.732041 0.873840 Br
0.724838 0.732136 0.123939 Br
0.126339 0.017998 0.275471 Br
0.376629 0.018172 0.524914 Br
0.126436 0.518135 0.275783 Br
0.126207 0.017969 0.775365 Br
0.376263 0.017985 0.025286 Br
0.626317 0.014780 0.272603 Br
0.876236 0.018299 0.525144 Br
0.126406 0.517838 0.775750 Br
0.376302 0.518019 0.025496 Br
0.870299 0.516130 0.524608 Br
0.626293 0.018299 0.775423 Br
0.876185 0.017927 0.025593 Br
0.627539 0.514941 0.772762 Br
0.876264 0.518119 0.026153 Br
0.025657 0.982167 0.126203 Br
0.275956 0.981853 0.376122 Br
0.025620 0.481889 0.126191 Br
0.025529 0.981866 0.625954 Br
0.275694 0.982004 0.875990 Br
0.525305 0.981824 0.126030 Br
0.775809 0.984059 0.376155 Br
0.026707 0.483973 0.625902 Br
0.275394 0.481850 0.876305 Br
0.527504 0.484201 0.125666 Br
0.772582 0.475886 0.377704 Br
0.526088 0.985032 0.625993 Br
0.775589 0.981423 0.875903 Br
0.777442 0.486743 0.876767 Br
0.381439 0.375047 0.338937 Cs
0.638281 0.376428 0.636679 Cs
0.603178 0.630359 0.381931 Cs
0.354199 0.626951 0.637119 Cs
0.382247 0.375895 0.624696 Cs
0.645092 0.375422 0.351749 Cs
0.611387 0.625879 0.642922 Cs
0.368748 0.621881 0.396300 Cs
0.249758 0.248906 0.249663 Pb
0.493695 0.263654 0.501118 Pb
0.500142 0.249231 0.248841 Pb
0.251867 0.249518 0.499804 Pb
0.500157 0.500715 0.248947 Pb
0.253162 0.500484 0.499879 Pb
0.249855 0.501446 0.249639 Pb
0.496673 0.483247 0.500020 Pb
0.485560 0.624796 0.730814 Br
0.732460 0.621870 0.480588 Br
0.747547 0.375263 0.747601 Br
0.436487 0.374213 0.484359 Br
0.271130 0.625352 0.266886 Br
0.519456 0.618281 0.509556 Br
0.514736 0.374912 0.260672 Br
0.260551 0.374810 0.520406 Br
0.374499 0.486183 0.729115 Br
0.479478 0.510086 0.374648 Br
0.722636 0.519027 0.624035 Br
0.521351 0.273393 0.625838 Br
0.276442 0.268085 0.376320 Br
0.626335 0.734965 0.272993 Br
0.376646 0.732201 0.524996 Br
0.374507 0.264188 0.728719 Br
0.474653 0.733098 0.373853 Br
0.724440 0.731778 0.623713 Br
0.626439 0.517815 0.276500 Br
0.378143 0.520658 0.525642 Br
0.520145 0.477007 0.626144 Br
0.276471 0.481832 0.376239 Br
0.599742 0.397707 0.489570 Br
