Cs64 Pb64 Br191
1.0
16.840035 0.000000 16.155961
0.000000 23.527616 0.000000
-16.840035 0.000000 16.155961
Cs Pb Br Cs Pb Br
56 56 168 8 8 23
direct
0.886024 0.875093 0.353600 Cs
0.136119 0.874945 0.603836 Cs
0.886051 0.375054 0.353268 Cs
0.135587 0.374802 0.603886 Cs
0.888629 0.876648 0.854034 Cs
0.135894 0.875111 0.103091 Cs
0.385186 0.874875 0.352451 Cs
0.637840 0.875193 0.603905 Cs
0.886386 0.375036 0.854036 Cs
0.135865 0.374920 0.103360 Cs
0.385601 0.875692 0.854621 Cs
0.636009 0.875217 0.103581 Cs
0.387077 0.374317 0.849722 Cs
0.637698 0.374681 0.103520 Cs
0.102816 0.124806 0.385734 Cs
0.352753 0.123633 0.636430 Cs
0.100350 0.625047 0.385140 Cs
0.103462 0.124980 0.886000 Cs
0.354150 0.125033 0.136118 Cs
0.603651 0.124882 0.384793 Cs
0.853973 0.125045 0.636262 Cs
0.103701 0.625005 0.886377 Cs
0.350964 0.625103 0.134464 Cs
0.853218 0.625517 0.636605 Cs
0.603885 0.125197 0.886634 Cs
0.853786 0.125040 0.136010 Cs
0.603415 0.625445 0.885428 Cs
0.853819 0.625047 0.136703 Cs
0.896518 0.875074 0.113885 Cs
0.146172 0.875009 0.363551 Cs
0.896618 0.374907 0.114040 Cs
0.146573 0.374370 0.364045 Cs
0.896396 0.875120 0.613970 Cs
0.146775 0.874985 0.864124 Cs
0.395817 0.874980 0.114070 Cs
0.647094 0.874699 0.364179 Cs
0.896581 0.374810 0.613972 Cs
0.147385 0.374951 0.863314 Cs
0.394918 0.374778 0.113113 Cs
0.396242 0.874836 0.614755 Cs
0.647314 0.877074 0.865445 Cs
0.643040 0.375062 0.862730 Cs
0.113854 0.125020 0.146321 Cs
0.363859 0.124347 0.395756 Cs
0.114158 0.625036 0.146872 Cs
0.114135 0.125130 0.646408 Cs
0.363961 0.125343 0.896435 Cs
0.613943 0.125069 0.146707 Cs
0.864055 0.124950 0.396229 Cs
0.114113 0.624999 0.645746 Cs
0.366075 0.624522 0.896079 Cs
0.614297 0.625441 0.141913 Cs
0.864091 0.625097 0.396536 Cs
0.614622 0.124776 0.646597 Cs
0.864176 0.125130 0.896602 Cs
0.863678 0.625074 0.896024 Cs
0.750405 0.750397 0.249675 Pb
0.000180 0.750116 0.500088 Pb
0.750200 0.249683 0.249881 Pb
0.999865 0.249600 0.499916 Pb
0.751910 0.753019 0.752798 Pb
0.000053 0.749859 0.000102 Pb
0.249454 0.750680 0.249580 Pb
0.500023 0.749810 0.500325 Pb
0.750177 0.250411 0.750138 Pb
0.000052 0.250184 0.999988 Pb
0.250244 0.749524 0.750031 Pb
0.499947 0.750894 0.000281 Pb
0.249609 0.249169 0.750606 Pb
0.500016 0.250305 0.000168 Pb
0.000088 0.750314 0.249901 Pb
0.249501 0.749424 0.500217 Pb
0.000019 0.250027 0.249928 Pb
0.000593 0.750104 0.750287 Pb
0.249977 0.750179 0.999740 Pb
0.499964 0.749251 0.249708 Pb
0.751088 0.750644 0.500216 Pb
0.999895 0.250264 0.750073 Pb
0.249852 0.249895 0.999963 Pb
0.750108 0.249644 0.500063 Pb
0.500200 0.753482 0.752692 Pb
0.750230 0.750234 0.000251 Pb
0.500479 0.249569 0.749860 Pb
0.750189 0.250327 0.999946 Pb
0.999979 0.000137 0.249930 Pb
0.249704 0.999095 0.499894 Pb
0.000100 0.499802 0.249904 Pb
0.000144 0.000256 0.749963 Pb
0.249891 0.000277 0.999968 Pb
0.500071 0.999597 0.249931 Pb
0.750263 0.000570 0.499898 Pb
-0.000002 0.500271 0.749995 Pb
0.249781 0.499893 0.999609 Pb
0.750162 0.499571 0.500632 Pb
0.500018 0.001047 0.750269 Pb
0.750234 0.000396 0.000166 Pb
0.499878 0.503243 0.747078 Pb
0.750286 0.500156 0.999857 Pb
0.750161 0.000014 0.249926 Pb
-0.000016 0.999868 0.500012 Pb
0.750482 0.499944 0.249523 Pb
0.999349 0.499672 0.499947 Pb
0.750348 0.000895 0.750346 Pb
0.000154 0.000284 0.000134 Pb
0.249810 0.000294 0.249837 Pb
0.500249 -0.000133 0.500312 Pb
0.750333 0.499524 0.749944 Pb
0.000094 0.500190 0.000049 Pb
0.249844 0.999510 0.750058 Pb
0.499953 0.000599 0.000121 Pb
0.250075 0.500509 0.750163 Pb
0.499943 0.499188 0.999301 Pb
0.984401 0.125110 0.230820 Br
0.233868 0.123544 0.479446 Br
0.984649 0.625042 0.231297 Br
0.230521 0.624748 0.479608 Br
0.984654 0.125322 0.730580 Br
0.234210 0.125149 0.980092 Br
0.484766 0.125349 0.232530 Br
0.733424 0.125200 0.479657 Br
0.984293 0.625218 0.730113 Br
0.235685 0.625009 0.979701 Br
0.484527 0.625123 0.223369 Br
0.484233 0.125914 0.729108 Br
0.734595 0.125439 0.980617 Br
0.733527 0.625300 0.979957 Br
0.230441 0.875318 0.233839 Br
0.482156 0.866834 0.484460 Br
0.230592 0.374617 0.234150 Br
0.231029 0.874267 0.734217 Br
0.480862 0.875758 0.985214 Br
0.730419 0.874978 0.234370 Br
0.980421 0.874779 0.484297 Br
0.234367 0.374692 0.732472 Br
0.479048 0.375432 0.982629 Br
0.731882 0.374984 0.233855 Br
0.980121 0.374673 0.484260 Br
0.730561 0.876545 0.735156 Br
0.981507 0.875066 0.984951 Br
0.980752 0.375258 0.984572 Br
0.769338 0.124920 0.265806 Br
0.019346 0.124737 0.515953 Br
0.767818 0.625019 0.266977 Br
0.018230 0.624748 0.515917 Br
0.769806 0.126173 0.765846 Br
0.019464 0.125255 0.015693 Br
0.270034 0.124899 0.265580 Br
0.519051 0.121909 0.514903 Br
0.765736 0.626202 0.764896 Br
0.019959 0.625028 0.016067 Br
0.268676 0.124401 0.766088 Br
0.519334 0.125860 0.016191 Br
0.272710 0.624494 0.764851 Br
0.517718 0.624928 0.012312 Br
0.015443 0.875144 0.269455 Br
0.266868 0.873862 0.520027 Br
0.015773 0.375041 0.269614 Br
0.017023 0.875154 0.768795 Br
0.265766 0.875166 0.018829 Br
0.515475 0.874233 0.271029 Br
0.766134 0.875459 0.517759 Br
0.016056 0.375441 0.769367 Br
0.265082 0.375026 0.018988 Br
0.764238 0.374810 0.520825 Br
0.516280 0.877262 0.771697 Br
0.765406 0.875250 0.019561 Br
0.516736 0.376945 0.758405 Br
0.766510 0.375499 0.019366 Br
0.873872 0.982040 0.224545 Br
0.124063 0.981623 0.474565 Br
0.874000 0.482229 0.224328 Br
0.121468 0.481773 0.473534 Br
0.873928 0.982161 0.724514 Br
0.123961 0.982163 0.974483 Br
0.374055 0.981972 0.224671 Br
0.623417 0.981807 0.474574 Br
0.873811 0.482325 0.724243 Br
0.123975 0.482066 0.974004 Br
0.374050 0.481922 0.224913 Br
0.374115 0.982098 0.724614 Br
0.623819 0.982946 0.975290 Br
0.623703 0.481915 0.974614 Br
0.974520 0.017915 0.373976 Br
0.224567 0.017884 0.623784 Br
0.973762 0.517772 0.373926 Br
0.225186 0.517475 0.623460 Br
0.974668 0.018066 0.873856 Br
0.224630 0.018120 0.123955 Br
0.474050 0.016157 0.374642 Br
0.724662 0.017974 0.623838 Br
0.974514 0.518139 0.873787 Br
0.224403 0.517578 0.123241 Br
0.474642 0.018532 0.873785 Br
0.724515 0.018090 0.123949 Br
0.476647 0.512809 0.866969 Br
0.724851 0.518041 0.123852 Br
0.025594 0.767913 0.126177 Br
0.275447 0.767957 0.376062 Br
0.025497 0.267941 0.126136 Br
0.025464 0.767980 0.626066 Br
0.275643 0.767772 0.875889 Br
0.524982 0.768429 0.127290 Br
0.775281 0.767661 0.375931 Br
0.025436 0.267893 0.626042 Br
0.275859 0.268307 0.875870 Br
0.525401 0.269329 0.126408 Br
0.775505 0.268139 0.376224 Br
0.526919 0.766089 0.626632 Br
0.779025 0.769516 0.876852 Br
0.775204 0.268432 0.875951 Br
0.126225 0.231941 0.275555 Br
0.376189 0.230390 0.525497 Br
0.126057 0.732461 0.275807 Br
0.125935 0.232291 0.775556 Br
0.376193 0.232092 0.025494 Br
0.626072 0.232566 0.275543 Br
0.875733 0.231928 0.525474 Br
0.126554 0.731434 0.775333 Br
0.376232 0.732359 0.025394 Br
0.876308 0.732110 0.525564 Br
0.626045 0.231903 0.775521 Br
0.876049 0.232137 0.025411 Br
0.626896 0.738322 0.781034 Br
0.876062 0.731780 0.025747 Br
0.873935 0.767942 0.224405 Br
0.124608 0.768133 0.474718 Br
0.873937 0.267856 0.224535 Br
0.123801 0.266714 0.474230 Br
0.874421 0.768524 0.725202 Br
0.123913 0.767783 0.974383 Br
0.373997 0.767764 0.225447 Br
0.623689 0.764533 0.474281 Br
0.873729 0.268312 0.724533 Br
0.123947 0.268111 0.974248 Br
0.374059 0.268331 0.224706 Br
0.374688 0.768064 0.724658 Br
0.623926 0.768045 0.974573 Br
0.623814 0.268406 0.974517 Br
0.974423 0.232046 0.373969 Br
0.225701 0.232439 0.623657 Br
0.974348 0.732247 0.374030 Br
0.225214 0.731639 0.623722 Br
0.974497 0.232189 0.873835 Br
0.224638 0.231926 0.123736 Br
0.473871 0.232936 0.374382 Br
0.724174 0.232219 0.623827 Br
0.974662 0.731970 0.873887 Br
0.224317 0.732441 0.123752 Br
0.475172 0.232800 0.873832 Br
0.724492 0.232046 0.123913 Br
0.472829 0.735918 0.875214 Br
0.724886 0.732137 0.123666 Br
0.126191 0.017976 0.275482 Br
0.376614 0.016790 0.525568 Br
0.126097 0.517634 0.275697 Br
0.126185 0.017953 0.775383 Br
0.376134 0.018111 0.025419 Br
0.626008 0.017599 0.275513 Br
0.875936 0.018117 0.525448 Br
0.126721 0.518069 0.775065 Br
0.376427 0.517844 0.024807 Br
0.873942 0.517484 0.526608 Br
0.626144 0.018682 0.775504 Br
0.876121 0.017957 0.025527 Br
0.625830 0.517319 0.775288 Br
0.876018 0.518337 0.025371 Br
0.025543 0.982181 0.126144 Br
0.275536 0.981715 0.376163 Br
0.025522 0.482107 0.126126 Br
0.025495 0.982082 0.626031 Br
0.275337 0.982263 0.876046 Br
0.525287 0.982195 0.126385 Br
0.775405 0.982106 0.376122 Br
0.025399 0.482025 0.626010 Br
0.276981 0.481425 0.875378 Br
0.525177 0.481459 0.122636 Br
0.774716 0.482472 0.376485 Br
0.525815 0.981137 0.625778 Br
0.775856 0.982245 0.876095 Br
0.775205 0.481939 0.875804 Br
0.384822 0.374352 0.354175 Cs
0.634239 0.375238 0.603854 Cs
0.613143 0.625062 0.381474 Cs
0.360365 0.621982 0.637513 Cs
0.382543 0.369178 0.614824 Cs
0.649315 0.374825 0.363569 Cs
0.625074 0.633833 0.662431 Cs
0.356455 0.625926 0.391812 Cs
0.249876 0.249550 0.249835 Pb
0.500047 0.247287 0.500280 Pb
0.500042 0.250898 0.249973 Pb
0.249134 0.248097 0.499310 Pb
0.499854 0.501017 0.246829 Pb
0.247220 0.500588 0.499190 Pb
0.249381 0.499356 0.249503 Pb
0.496580 0.496368 0.492039 Pb
0.486551 0.627995 0.742874 Br
0.735709 0.625019 0.483403 Br
0.728659 0.375837 0.733702 Br
0.478670 0.374537 0.493563 Br
0.265762 0.625032 0.262539 Br
0.515177 0.376471 0.273320 Br
0.261017 0.374138 0.513817 Br
0.374980 0.482291 0.721685 Br
0.621191 0.482252 0.473768 Br
0.477901 0.531103 0.370179 Br
0.721518 0.518036 0.624038 Br
0.525226 0.265944 0.625485 Br
0.275938 0.266892 0.375950 Br
0.626092 0.732762 0.273244 Br
0.377474 0.727788 0.524313 Br
0.373948 0.264574 0.726193 Br
0.623104 0.268353 0.474780 Br
0.477699 0.723761 0.376433 Br
0.728243 0.738226 0.624651 Br
0.625877 0.517696 0.271943 Br
0.373481 0.516541 0.519874 Br
0.274987 0.482239 0.375271 Br
0.515435 0.549975 0.599706 Br
