Cs64 Pb64 Br191
1.0
16.840035 0.000000 16.155961
0.000000 23.527616 0.000000
-16.840035 0.000000 16.155961
Cs Pb Br Cs Pb Br
56 56 168 8 8 23
Selective dynamics
direct
0.886388 0.875419 0.352556 F F F
0.136698 0.875250 0.604372 F F F
0.886254 0.375053 0.352261 F F F
0.137814 0.375110 0.604525 F F F
0.886499 0.875367 0.854334 F F F
0.136349 0.875279 0.103828 F F F
0.385832 0.875352 0.354164 F F F
0.635118 0.875268 0.604400 F F F
0.886547 0.374953 0.854481 F F F
0.136146 0.375073 0.103500 F F F
0.386181 0.875440 0.854148 F F F
0.636130 0.875342 0.103720 F F F
0.386247 0.374970 0.853916 F F F
0.636233 0.375033 0.103815 F F F
0.103853 0.125174 0.386171 F F F
0.353630 0.125194 0.636128 F F F
0.104941 0.625168 0.385680 F F F
0.104108 0.125160 0.886504 F F F
0.353729 0.125196 0.136115 F F F
0.603165 0.125135 0.385527 F F F
0.854399 0.125138 0.636912 F F F
0.103864 0.625186 0.886021 F F F
0.354373 0.625164 0.136461 F F F
0.859986 0.625492 0.643493 F F F
0.603900 0.125158 0.886390 F F F
0.854002 0.125192 0.136077 F F F
0.603714 0.625281 0.886929 F F F
0.854306 0.625173 0.136105 F F F
0.896612 0.875274 0.114070 F F F
0.146671 0.875124 0.364088 F F F
0.896687 0.375055 0.114083 F F F
0.146652 0.375141 0.363916 F F F
0.899997 0.875472 0.617296 F F F
0.146692 0.875338 0.864317 F F F
0.396260 0.875355 0.114008 F F F
0.645571 0.875363 0.363113 F F F
0.900339 0.374784 0.617509 F F F
0.146793 0.375012 0.864347 F F F
0.396206 0.374984 0.113925 F F F
0.396559 0.875331 0.614066 F F F
0.646501 0.875304 0.864162 F F F
0.646334 0.375077 0.864103 F F F
0.114193 0.125169 0.146527 F F F
0.363945 0.125162 0.396209 F F F
0.113849 0.625158 0.146747 F F F
0.114341 0.125165 0.646210 F F F
0.364085 0.125160 0.896668 F F F
0.614009 0.125190 0.146454 F F F
0.865330 0.125171 0.396097 F F F
0.114953 0.625111 0.646613 F F F
0.364242 0.625219 0.896505 F F F
0.613790 0.625130 0.146187 F F F
0.871067 0.625214 0.390087 F F F
0.614153 0.125098 0.647477 F F F
0.864164 0.125174 0.896641 F F F
0.864512 0.625163 0.897963 F F F
0.750059 0.750483 0.249390 F F F
0.000497 0.750265 0.500345 F F F
0.750034 0.250091 0.249924 F F F
0.000230 0.250609 0.500115 F F F
0.750079 0.750166 0.750453 F F F
0.000217 0.750445 0.000063 F F F
0.249940 0.750427 0.249852 F F F
0.499947 0.750293 0.500250 F F F
0.750064 0.250502 0.750320 F F F
0.000206 0.250225 0.000179 F F F
0.250198 0.750557 0.750350 F F F
0.499928 0.750513 0.000033 F F F
0.250252 0.250188 0.750247 F F F
0.500053 0.250309 0.000138 F F F
0.000532 0.750817 0.249648 F F F
0.250203 0.750416 0.500277 F F F
0.000299 0.250176 0.249999 F F F
0.000814 0.750794 0.750875 F F F
0.250127 0.750399 0.000119 F F F
0.499702 0.751110 0.249665 F F F
0.751898 0.754963 0.501090 F F F
0.000451 0.249782 0.750388 F F F
0.250151 0.250410 0.000156 F F F
0.750207 0.248575 0.500127 F F F
0.499750 0.750845 0.750554 F F F
0.750118 0.750537 0.000071 F F F
0.499959 0.250031 0.750300 F F F
0.750139 0.250413 0.000146 F F F
0.000234 0.000440 0.249948 F F F
0.250045 0.000405 0.500051 F F F
0.000526 0.499814 0.249675 F F F
0.000359 0.000672 0.750360 F F F
0.250107 0.000392 0.000108 F F F
0.499878 0.000522 0.249876 F F F
0.750135 0.001573 0.500024 F F F
0.000855 0.499572 0.750852 F F F
0.250088 0.500477 0.000111 F F F
0.753112 0.495295 0.502482 F F F
0.499938 0.000458 0.750211 F F F
0.750103 0.000415 0.000116 F F F
0.499795 0.500068 0.750588 F F F
0.750098 0.500277 0.000091 F F F
0.750094 0.000637 0.249896 F F F
0.000255 0.000104 0.500086 F F F
0.750149 0.500262 0.249691 F F F
0.000772 0.500162 0.500463 F F F
0.750134 0.000315 0.750449 F F F
0.000221 0.000456 0.000196 F F F
0.250064 0.000534 0.250041 F F F
0.500007 0.000620 0.500181 F F F
0.750128 0.500513 0.750568 F F F
0.000272 0.500324 0.000093 F F F
0.250212 0.000468 0.750235 F F F
0.500089 0.000535 0.000141 F F F
0.250319 0.500245 0.750475 F F F
0.499963 0.500312 0.000075 F F F
0.984307 0.125450 0.231237 F F F
0.234507 0.125617 0.481084 F F F
0.983573 0.625469 0.233455 F F F
0.233895 0.625482 0.481413 F F F
0.984728 0.125365 0.730489 F F F
0.234604 0.125543 0.981179 F F F
0.484510 0.125470 0.231131 F F F
0.735087 0.125106 0.481353 F F F
0.988552 0.625303 0.734860 F F F
0.234530 0.625577 0.980794 F F F
0.485743 0.625313 0.233573 F F F
0.484168 0.125434 0.730688 F F F
0.734587 0.125549 0.981179 F F F
0.734391 0.625526 0.981620 F F F
0.231096 0.875449 0.234628 F F F
0.482440 0.875421 0.484552 F F F
0.230350 0.375407 0.234086 F F F
0.231126 0.875558 0.734679 F F F
0.481106 0.875582 0.984777 F F F
0.731315 0.875407 0.234895 F F F
0.978310 0.875075 0.484991 F F F
0.231477 0.375493 0.734930 F F F
0.481102 0.375552 0.984587 F F F
0.730968 0.375618 0.235469 F F F
0.977903 0.375942 0.484767 F F F
0.730863 0.875163 0.733545 F F F
0.981056 0.875480 0.984696 F F F
0.981169 0.375439 0.984773 F F F
0.769989 0.125508 0.266586 F F F
0.018673 0.125556 0.515709 F F F
0.769770 0.625554 0.266453 F F F
0.021523 0.625489 0.515261 F F F
0.769328 0.125615 0.765768 F F F
0.019637 0.125463 0.016136 F F F
0.269574 0.125532 0.265989 F F F
0.520818 0.125584 0.516275 F F F
0.769387 0.625539 0.768158 F F F
0.019404 0.625487 0.015909 F F F
0.269867 0.125512 0.766037 F F F
0.519822 0.125596 0.016149 F F F
0.268689 0.625573 0.766716 F F F
0.519141 0.625572 0.016202 F F F
0.016368 0.875564 0.269394 F F F
0.266164 0.875412 0.519432 F F F
0.016368 0.375357 0.269313 F F F
0.015892 0.875661 0.769342 F F F
0.265986 0.875528 0.019534 F F F
0.515489 0.875525 0.269892 F F F
0.767825 0.871223 0.521174 F F F
0.015938 0.375010 0.769586 F F F
0.265940 0.375612 0.019402 F F F
0.767751 0.378861 0.522493 F F F
0.516150 0.875577 0.769620 F F F
0.766051 0.875474 0.019679 F F F
0.516152 0.375430 0.768802 F F F
0.766137 0.375634 0.019744 F F F
0.873988 0.982180 0.224713 F F F
0.123915 0.982000 0.474757 F F F
0.873991 0.482253 0.224827 F F F
0.123943 0.481543 0.475574 F F F
0.874019 0.982499 0.724938 F F F
0.124062 0.982243 0.974691 F F F
0.374160 0.982202 0.224739 F F F
0.625192 0.981885 0.474931 F F F
0.874103 0.482586 0.725025 F F F
0.124042 0.482234 0.974575 F F F
0.374232 0.482009 0.224665 F F F
0.374164 0.982141 0.724585 F F F
0.624198 0.982185 0.974708 F F F
0.624218 0.482195 0.974783 F F F
0.974657 0.017831 0.374208 F F F
0.224690 0.018054 0.623996 F F F
0.976946 0.516586 0.374280 F F F
0.225450 0.518381 0.624048 F F F
0.974621 0.018167 0.873988 F F F
0.224629 0.018096 0.124146 F F F
0.474784 0.018179 0.374248 F F F
0.724675 0.017847 0.623570 F F F
0.974469 0.517803 0.874075 F F F
0.224603 0.518205 0.124101 F F F
0.474668 0.018166 0.874026 F F F
0.724647 0.018110 0.124355 F F F
0.474628 0.517820 0.874238 F F F
0.724820 0.518139 0.124661 F F F
0.025793 0.768036 0.126129 F F F
0.275372 0.767972 0.376295 F F F
0.025629 0.268044 0.126210 F F F
0.025408 0.767904 0.626215 F F F
0.275799 0.768239 0.876169 F F F
0.525730 0.768043 0.126427 F F F
0.777176 0.765771 0.377117 F F F
0.026089 0.268402 0.626131 F F F
0.275696 0.268044 0.876132 F F F
0.525682 0.268210 0.126302 F F F
0.775409 0.268497 0.376919 F F F
0.525742 0.767857 0.626135 F F F
0.775539 0.768222 0.875651 F F F
0.775524 0.268256 0.875971 F F F
0.126093 0.232148 0.275723 F F F
0.376567 0.232380 0.525319 F F F
0.126140 0.732289 0.275475 F F F
0.126146 0.232083 0.775677 F F F
0.376221 0.232240 0.025669 F F F
0.626222 0.232314 0.275790 F F F
0.875857 0.232401 0.526133 F F F
0.126283 0.733062 0.776102 F F F
0.376209 0.732234 0.025753 F F F
0.874569 0.725011 0.524084 F F F
0.626215 0.232149 0.775623 F F F
0.876084 0.232237 0.025574 F F F
0.626246 0.732443 0.776131 F F F
0.876042 0.732284 0.025685 F F F
0.873988 0.768032 0.224800 F F F
0.123531 0.768647 0.475716 F F F
0.873961 0.268147 0.224706 F F F
0.123967 0.268540 0.474807 F F F
0.874078 0.767753 0.724917 F F F
0.124012 0.768122 0.974597 F F F
0.374192 0.768047 0.224477 F F F
0.625952 0.765862 0.473012 F F F
0.874002 0.267824 0.724958 F F F
0.124050 0.268046 0.974645 F F F
0.374154 0.268329 0.224900 F F F
0.374227 0.768338 0.724553 F F F
0.624174 0.768134 0.974707 F F F
0.624174 0.268162 0.974695 F F F
0.974694 0.232508 0.374241 F F F
0.224739 0.232235 0.624015 F F F
0.976861 0.734171 0.374245 F F F
0.224865 0.732265 0.624106 F F F
0.974659 0.232097 0.873998 F F F
0.224685 0.232187 0.124160 F F F
0.474811 0.232159 0.374336 F F F
0.724586 0.232325 0.623614 F F F
0.974399 0.732510 0.874099 F F F
0.224591 0.732124 0.124156 F F F
0.474674 0.232169 0.874068 F F F
0.724682 0.232230 0.124407 F F F
0.474491 0.732753 0.874203 F F F
0.724702 0.732108 0.124433 F F F
0.126109 0.018130 0.275723 F F F
0.376505 0.018060 0.525468 F F F
0.126157 0.518024 0.275504 F F F
0.126139 0.018225 0.775664 F F F
0.376238 0.018127 0.025672 F F F
0.626244 0.018007 0.275729 F F F
0.875759 0.017881 0.526001 F F F
0.126326 0.517542 0.775872 F F F
0.376234 0.518140 0.025741 F F F
0.875806 0.525321 0.525182 F F F
0.626251 0.018118 0.775615 F F F
0.876103 0.018093 0.025612 F F F
0.626320 0.518177 0.776241 F F F
0.876079 0.518062 0.025682 F F F
0.025629 0.982221 0.126197 F F F
0.275508 0.982291 0.376243 F F F
0.025778 0.482344 0.126127 F F F
0.025768 0.982161 0.626089 F F F
0.275626 0.982297 0.876114 F F F
0.525671 0.982218 0.126258 F F F
0.775394 0.981942 0.376805 F F F
0.025831 0.482209 0.626224 F F F
0.275843 0.482171 0.876123 F F F
0.525660 0.482164 0.126417 F F F
0.777601 0.485518 0.377690 F F F
0.525652 0.982256 0.626060 F F F
0.775568 0.982121 0.875966 F F F
0.775547 0.482079 0.875732 F F F
0.386664 0.374995 0.356398 F F F
0.634150 0.375280 0.604038 F F F
0.593008 0.625320 0.379109 F F F
0.353621 0.625293 0.637769 F F F
0.397654 0.375178 0.614169 F F F
0.645716 0.375638 0.364135 F F F
0.611580 0.625473 0.652637 F F F
0.361969 0.625268 0.395708 F F F
0.250073 0.250389 0.249979 F F F
0.500104 0.249908 0.500230 F F F
0.499932 0.250285 0.249950 F F F
0.250107 0.250481 0.500099 F F F
0.499699 0.499259 0.249665 F F F
0.250277 0.500348 0.500220 F F F
0.250001 0.499986 0.249870 F F F
0.500319 0.501785 0.500387 F F F
0.482262 0.625576 0.734491 F F F
0.730214 0.375999 0.733115 F F F
0.485126 0.376283 0.485664 F F F
0.268712 0.625328 0.265337 F F F
0.515881 0.375269 0.270713 F F F
0.267356 0.375702 0.519832 F F F
0.374346 0.482049 0.724541 F F F
0.626871 0.486503 0.473917 F F F
0.473601 0.518108 0.374329 F F F
0.726291 0.524162 0.623000 F F F
0.525678 0.267794 0.626125 F F F
0.275587 0.268185 0.376269 F F F
0.626300 0.733010 0.275642 F F F
0.376658 0.731649 0.525608 F F F
0.374155 0.268185 0.724461 F F F
0.625353 0.268177 0.474975 F F F
0.473195 0.732698 0.374343 F F F
0.725653 0.727913 0.622648 F F F
0.626306 0.517647 0.275578 F F F
0.376945 0.519597 0.525208 F F F
0.526348 0.484361 0.626200 F F F
0.275474 0.482161 0.376228 F F F
0.524416 0.626161 0.516710 T T T