Cs2 Pb2 Br6                             
   1.0000000000000000     
     5.7738694102988832    5.7854172965864850   -0.1714364444798309
     5.9473011831175713    0.0024626445172734   -5.9680811068022228
     0.0023593309358687    5.9571888762568168   -5.9681565793364895
   Cs   Pb   Br
     2     2     6
Direct
  0.7499346709284112  0.7517020533681844  0.7468005730329850
  0.2500653290715888  0.2482979466318156  0.2531994269670150
  0.0000000000000000  0.0000000000000000  0.0000000000000000
  0.5000000000000000  0.5000000000000000  0.5000000000000000
  0.2388935464712461  0.6860839177196638  0.2604133605701477
  0.7611064535287539  0.3139160822803362  0.7395866394298523
  0.2553025940222327  0.8096449224315307  0.6900281001303838
  0.7446974059777673  0.1903550775684693  0.3099718998696162
  0.2554865711002705  0.2448519955201363  0.8178726560933498
  0.7445134288997295  0.7551480044798637  0.1821273439066502

  0.00000000E+00  0.00000000E+00 -0.00000000E+00
  0.00000000E+00  0.00000000E+00 -0.00000000E+00
  0.00000000E+00  0.00000000E+00 -0.00000000E+00
  0.00000000E+00  0.00000000E+00 -0.00000000E+00
  0.00000000E+00  0.00000000E+00 -0.00000000E+00
  0.00000000E+00  0.00000000E+00 -0.00000000E+00
  0.00000000E+00  0.00000000E+00 -0.00000000E+00
  0.00000000E+00  0.00000000E+00 -0.00000000E+00
  0.00000000E+00  0.00000000E+00 -0.00000000E+00
  0.00000000E+00  0.00000000E+00 -0.00000000E+00
