Cs2 Pb2 Br6                             
   1.0000000000000000     
     5.7738694102988832    5.7854172965864850   -0.1714364444798309
     5.9473011831175713    0.0024626445172734   -5.9680811068022228
     0.0023593309358687    5.9571888762568168   -5.9681565793364895
   Cs   Pb   Br
     2     2     6
Direct
  0.7499346709284104  0.7517020533681854  0.7468005730329860
  0.2500653290715896  0.2482979466318144  0.2531994269670141
  0.0000000000000000 -0.0000000000000000  0.0000000000000000
  0.5000000000000000  0.5000000000000000  0.5000000000000000
  0.2388935464712442  0.6860839177196646  0.2604133605701467
  0.7611064535287555  0.3139160822803351  0.7395866394298530
  0.2553025940222348  0.8096449224315329  0.6900281001303853
  0.7446974059777652  0.1903550775684673  0.3099718998696145
  0.2554865711002715  0.2448519955201382  0.8178726560933510
  0.7445134288997285  0.7551480044798617  0.1821273439066492

  0.00000000E+00  0.00000000E+00 -0.00000000E+00
  0.00000000E+00  0.00000000E+00 -0.00000000E+00
  0.00000000E+00  0.00000000E+00 -0.00000000E+00
  0.00000000E+00  0.00000000E+00 -0.00000000E+00
  0.00000000E+00  0.00000000E+00 -0.00000000E+00
  0.00000000E+00  0.00000000E+00 -0.00000000E+00
  0.00000000E+00  0.00000000E+00 -0.00000000E+00
  0.00000000E+00  0.00000000E+00 -0.00000000E+00
  0.00000000E+00  0.00000000E+00 -0.00000000E+00
  0.00000000E+00  0.00000000E+00 -0.00000000E+00
