Cs8 Pb8 Br23                            
   1.0000000000000000     
     8.4564889999999995    0.0000000000000000    8.0403009999999995
     0.0000000000000000   11.7298469999999995    0.0000000000000000
    -8.4564889999999995    0.0000000000000000    8.0403009999999995
   Cs   Pb   Br
     8     8    23
Direct
  0.2641229999999979  0.2569739999999996  0.2110970000000023
  0.7691099999999977  0.2351590000000030  0.7571709999999996
  0.7070859999999968  0.7765559999999994  0.2261420000000030
  0.2138070000000027  0.7484639999999985  0.7767499999999998
  0.3028890000000004  0.2722570000000033  0.7422990000000027
  0.7910370000000029  0.2419999999999973  0.2080910000000031
  0.7369940000000028  0.7502119999999977  0.8073449999999980
  0.2325609999999969  0.7420439999999999  0.2776709999999980
  0.0069319999999991  0.0012839999999983  0.9976800000000026
  0.5021419999999992  0.0089120000000023  0.4918309999999977
  0.4926990000000018  0.0047590000000000  0.9928770000000000
  0.0080829999999992  0.0379920000000027  0.5053950000000000
  0.5011939999999981  0.5029269999999997  0.0013509999999997
  0.9454399999999978  0.5002750000000020  0.5025839999999988
  0.0001249999999970  0.5017840000000007  0.0086760000000012
  0.5204489999999993  0.5051160000000010  0.5022400000000005
  0.4777410000000017  0.7535730000000029  0.9676740000000024
  0.9978389999999990  0.2518420000000035  0.9765230000000003
  0.4505029999999977  0.2405740000000023  0.4732800000000026
  0.0167169999999999  0.7523509999999973  0.0343299999999971
  0.5178730000000016  0.2528039999999976  0.0329959999999971
  0.0553919999999977  0.2765169999999983  0.5407920000000033
  0.2483950000000021  0.4854899999999986  0.9634769999999975
  0.7480159999999998  0.3677800000000033  0.4770660000000007
  0.4710559999999973  0.5433239999999984  0.2499129999999994
  0.9512179999999972  0.5304989999999989  0.7474599999999967
  0.5391910000000024  0.0272829999999971  0.7451000000000008
  0.0455710000000025  0.0275180000000006  0.2537900000000022
  0.7547759999999997  0.9965529999999987  0.0181320000000014
  0.2459640000000007  0.9529479999999992  0.5366799999999969
  0.2493720000000010  0.0302900000000008  0.9339459999999988
  0.7505329999999972  0.0322049999999976  0.4440519999999992
  0.4458920000000006  0.9675519999999977  0.2431490000000025
  0.9575639999999979  0.9626310000000018  0.7423980000000014
  0.7528620000000004  0.5220619999999982  0.0522589999999994
  0.2757360000000020  0.5627449999999996  0.5377579999999966
  0.5575749999999999  0.4677959999999999  0.7541030000000006
  0.0374929999999978  0.4727559999999968  0.2581800000000030
  0.6978179999999981  0.6861930000000029  0.5120930000000001

  0.00000000E+00  0.00000000E+00  0.00000000E+00
  0.00000000E+00  0.00000000E+00  0.00000000E+00
  0.00000000E+00  0.00000000E+00  0.00000000E+00
  0.00000000E+00  0.00000000E+00  0.00000000E+00
  0.00000000E+00  0.00000000E+00  0.00000000E+00
  0.00000000E+00  0.00000000E+00  0.00000000E+00
  0.00000000E+00  0.00000000E+00  0.00000000E+00
  0.00000000E+00  0.00000000E+00  0.00000000E+00
  0.00000000E+00  0.00000000E+00  0.00000000E+00
  0.00000000E+00  0.00000000E+00  0.00000000E+00
  0.00000000E+00  0.00000000E+00  0.00000000E+00
  0.00000000E+00  0.00000000E+00  0.00000000E+00
  0.00000000E+00  0.00000000E+00  0.00000000E+00
  0.00000000E+00  0.00000000E+00  0.00000000E+00
  0.00000000E+00  0.00000000E+00  0.00000000E+00
  0.00000000E+00  0.00000000E+00  0.00000000E+00
  0.00000000E+00  0.00000000E+00  0.00000000E+00
  0.00000000E+00  0.00000000E+00  0.00000000E+00
  0.00000000E+00  0.00000000E+00  0.00000000E+00
  0.00000000E+00  0.00000000E+00  0.00000000E+00
  0.00000000E+00  0.00000000E+00  0.00000000E+00
  0.00000000E+00  0.00000000E+00  0.00000000E+00
  0.00000000E+00  0.00000000E+00  0.00000000E+00
  0.00000000E+00  0.00000000E+00  0.00000000E+00
  0.00000000E+00  0.00000000E+00  0.00000000E+00
  0.00000000E+00  0.00000000E+00  0.00000000E+00
  0.00000000E+00  0.00000000E+00  0.00000000E+00
  0.00000000E+00  0.00000000E+00  0.00000000E+00
  0.00000000E+00  0.00000000E+00  0.00000000E+00
  0.00000000E+00  0.00000000E+00  0.00000000E+00
  0.00000000E+00  0.00000000E+00  0.00000000E+00
  0.00000000E+00  0.00000000E+00  0.00000000E+00
  0.00000000E+00  0.00000000E+00  0.00000000E+00
  0.00000000E+00  0.00000000E+00  0.00000000E+00
  0.00000000E+00  0.00000000E+00  0.00000000E+00
  0.00000000E+00  0.00000000E+00  0.00000000E+00
  0.00000000E+00  0.00000000E+00  0.00000000E+00
  0.00000000E+00  0.00000000E+00  0.00000000E+00
  0.00000000E+00  0.00000000E+00  0.00000000E+00
