Cs8 Pb8 Br23
1.0
8.456489 0.000000 8.040301
0.000000 11.729847 0.000000
-8.456489 0.000000 8.040301
Cs Pb Br
8 8 23
direct
0.264123 0.256974 0.211097 Cs
0.769110 0.235159 0.757171 Cs
0.707086 0.776556 0.226142 Cs
0.213807 0.748464 0.776750 Cs
0.302889 0.272257 0.742299 Cs
0.791037 0.242000 0.208091 Cs
0.736994 0.750212 0.807345 Cs
0.232561 0.742044 0.277671 Cs
0.006932 0.001284 -0.002320 Pb
0.502142 0.008912 0.491831 Pb
0.492699 0.004759 -0.007123 Pb
0.008083 0.037992 0.505395 Pb
0.501194 0.502927 0.001351 Pb
-0.054560 0.500275 0.502584 Pb
0.000125 0.501784 0.008676 Pb
0.520449 0.505116 0.502240 Pb
0.477741 0.753573 0.967674 Br
0.997839 0.251842 0.976523 Br
0.450503 0.240574 0.473280 Br
0.016717 0.752351 0.034330 Br
0.517873 0.252804 0.032996 Br
0.055392 0.276517 0.540792 Br
0.248395 0.485490 0.963477 Br
0.748016 0.367780 0.477066 Br
0.471056 0.543324 0.249913 Br
0.951218 0.530499 0.747460 Br
0.539191 0.027283 0.745100 Br
0.045571 0.027518 0.253790 Br
0.754776 0.996553 0.018132 Br
0.245964 0.952948 0.536680 Br
0.249372 0.030290 0.933946 Br
0.750533 0.032205 0.444052 Br
0.445892 0.967552 0.243149 Br
0.957564 0.962631 0.742398 Br
0.752862 0.522062 0.052259 Br
0.275736 0.562745 0.537758 Br
0.557575 0.467796 0.754103 Br
0.037493 0.472756 0.258180 Br
0.697818 0.686193 0.512093 Br
