Cs2 Pb2 Br6                             
   1.0000000000000000     
     5.8266449317991933    5.8798831787021708   -0.0691296454639804
     5.8266449317991933    0.0693439704889073   -5.9019673981003553
     0.0000000000000000    5.9492271491910786   -5.9710970435643338
   Cs   Pb   Br
     2     2     6
Direct
  0.7482759827863035  0.7517240172136965  0.7399680268344611
  0.2517240172136965  0.2482759827863035  0.2600319731655389
  0.0000000000000000  0.0000000000000000  0.0000000000000000
  0.5000000000000000  0.5000000000000000  0.5000000000000000
  0.2040029055145638  0.7040029055145638  0.2959970944854362
  0.7959970944854362  0.2959970944854362  0.7040029055145638
  0.2907964126692804  0.7907964126692804  0.7092035873307196
  0.7092035873307196  0.2092035873307196  0.2907964126692804
  0.2564961853566956  0.2435038146433044  0.8282679324146116
  0.7435038146433044  0.7564961853566956  0.1717320675853884

  0.00000000E+00  0.00000000E+00 -0.00000000E+00
  0.00000000E+00  0.00000000E+00 -0.00000000E+00
  0.00000000E+00  0.00000000E+00 -0.00000000E+00
  0.00000000E+00  0.00000000E+00 -0.00000000E+00
  0.00000000E+00  0.00000000E+00 -0.00000000E+00
  0.00000000E+00  0.00000000E+00 -0.00000000E+00
  0.00000000E+00  0.00000000E+00 -0.00000000E+00
  0.00000000E+00  0.00000000E+00 -0.00000000E+00
  0.00000000E+00  0.00000000E+00 -0.00000000E+00
  0.00000000E+00  0.00000000E+00 -0.00000000E+00
