Cs2 Pb2 Br6                             
   1.0000000000000000     
     5.8266449317991933    5.8798831787021708   -0.0691296454639804
     5.8266449317991933    0.0693439704889073   -5.9019673981003553
     0.0000000000000000    5.9492271491910786   -5.9710970435643338
   Cs   Pb   Br
     2     2     6
Direct
  0.7482759827863011  0.7517240172136989  0.7399680268344601
  0.2517240172136989  0.2482759827863012  0.2600319731655399
  0.0000000000000000 -0.0000000000000000 -0.0000000000000000
  0.5000000000000000  0.5000000000000000  0.5000000000000000
  0.2040029055145667  0.7040029055145669  0.2959970944854332
  0.7959970944854331  0.2959970944854332  0.7040029055145669
  0.2907964126692831  0.7907964126692835  0.7092035873307165
  0.7092035873307165  0.2092035873307168  0.2907964126692831
  0.2564961853566926  0.2435038146433075  0.8282679324146106
  0.7435038146433073  0.7564961853566927  0.1717320675853893

  0.00000000E+00  0.00000000E+00 -0.00000000E+00
  0.00000000E+00  0.00000000E+00 -0.00000000E+00
  0.00000000E+00  0.00000000E+00 -0.00000000E+00
  0.00000000E+00  0.00000000E+00 -0.00000000E+00
  0.00000000E+00  0.00000000E+00 -0.00000000E+00
  0.00000000E+00  0.00000000E+00 -0.00000000E+00
  0.00000000E+00  0.00000000E+00 -0.00000000E+00
  0.00000000E+00  0.00000000E+00 -0.00000000E+00
  0.00000000E+00  0.00000000E+00 -0.00000000E+00
  0.00000000E+00  0.00000000E+00 -0.00000000E+00
