Cs8 Pb8 Br23                            
   1.0000000000000000     
     8.4564889999999995    0.0000000000000000    8.0403009999999995
     0.0000000000000000   11.7298469999999995    0.0000000000000000
    -8.4564889999999995    0.0000000000000000    8.0403009999999995
   Cs   Pb   Br
     8     8    23
Direct
  0.2657460000000000  0.2449349999999981  0.1989159999999970
  0.7782309999999981  0.2434960000000004  0.7140789999999981
  0.7221639999999994  0.7522149999999996  0.2629060000000010
  0.1996060000000028  0.7555849999999964  0.7776619999999994
  0.2916019999999975  0.2356359999999995  0.7491109999999992
  0.7925100000000000  0.2498999999999967  0.2265990000000002
  0.7343789999999970  0.7484499999999983  0.8084410000000020
  0.2271619999999999  0.7513829999999970  0.2569599999999994
  0.9943320000000000  0.0008499999999998  0.9994650000000007
  0.4918059999999969  0.0015720000000030  0.5007329999999968
  0.4993169999999978  0.9952899999999971  0.0002819999999986
  0.0000250000000008  0.0056310000000011  0.4996849999999995
  0.5006240000000020  0.4964540000000000  0.0001159999999985
  0.0088890000000035  0.5067999999999984  0.5005859999999984
  0.9998750000000030  0.4984309999999965  0.9996119999999991
  0.5143630000000030  0.4848450000000000  0.4983829999999969
  0.4684129999999982  0.7463440000000006  0.9639829999999989
  0.9827810000000028  0.7557690000000008  0.4560889999999986
  0.9700369999999978  0.2498310000000004  0.9694440000000029
  0.4419359999999983  0.2392370000000028  0.4737849999999995
  0.0086650000000006  0.7494280000000018  0.0254100000000008
  0.5245790000000028  0.2461740000000034  0.0336489999999969
  0.0361290000000025  0.2587669999999989  0.5409930000000003
  0.2471129999999988  0.4714680000000016  0.9476799999999983
  0.7704200000000014  0.4820860000000025  0.4470659999999995
  0.4587539999999990  0.5284720000000007  0.2463109999999986
  0.9504820000000009  0.5357479999999981  0.7461520000000021
  0.5524210000000025  0.0261339999999990  0.7510559999999984
  0.0454440000000034  0.0358120000000000  0.2523630000000026
  0.7481739999999988  0.9718749999999972  0.0526380000000017
  0.2466229999999996  0.9768339999999966  0.5609189999999984
  0.2442560000000000  0.0193790000000007  0.9603710000000021
  0.7391110000000012  0.0373170000000016  0.4537679999999966
  0.4564900000000023  0.9580350000000024  0.2503340000000023
  0.9464949999999988  0.9655950000000004  0.7471850000000018
  0.7520480000000020  0.5260170000000031  0.0524819999999977
  0.5542379999999980  0.4581670000000031  0.7466340000000002
  0.0579740000000015  0.4687479999999979  0.2538470000000004
  0.3623249999999985  0.6643609999999995  0.5346630000000019

  0.00000000E+00  0.00000000E+00  0.00000000E+00
  0.00000000E+00  0.00000000E+00  0.00000000E+00
  0.00000000E+00  0.00000000E+00  0.00000000E+00
  0.00000000E+00  0.00000000E+00  0.00000000E+00
  0.00000000E+00  0.00000000E+00  0.00000000E+00
  0.00000000E+00  0.00000000E+00  0.00000000E+00
  0.00000000E+00  0.00000000E+00  0.00000000E+00
  0.00000000E+00  0.00000000E+00  0.00000000E+00
  0.00000000E+00  0.00000000E+00  0.00000000E+00
  0.00000000E+00  0.00000000E+00  0.00000000E+00
  0.00000000E+00  0.00000000E+00  0.00000000E+00
  0.00000000E+00  0.00000000E+00  0.00000000E+00
  0.00000000E+00  0.00000000E+00  0.00000000E+00
  0.00000000E+00  0.00000000E+00  0.00000000E+00
  0.00000000E+00  0.00000000E+00  0.00000000E+00
  0.00000000E+00  0.00000000E+00  0.00000000E+00
  0.00000000E+00  0.00000000E+00  0.00000000E+00
  0.00000000E+00  0.00000000E+00  0.00000000E+00
  0.00000000E+00  0.00000000E+00  0.00000000E+00
  0.00000000E+00  0.00000000E+00  0.00000000E+00
  0.00000000E+00  0.00000000E+00  0.00000000E+00
  0.00000000E+00  0.00000000E+00  0.00000000E+00
  0.00000000E+00  0.00000000E+00  0.00000000E+00
  0.00000000E+00  0.00000000E+00  0.00000000E+00
  0.00000000E+00  0.00000000E+00  0.00000000E+00
  0.00000000E+00  0.00000000E+00  0.00000000E+00
  0.00000000E+00  0.00000000E+00  0.00000000E+00
  0.00000000E+00  0.00000000E+00  0.00000000E+00
  0.00000000E+00  0.00000000E+00  0.00000000E+00
  0.00000000E+00  0.00000000E+00  0.00000000E+00
  0.00000000E+00  0.00000000E+00  0.00000000E+00
  0.00000000E+00  0.00000000E+00  0.00000000E+00
  0.00000000E+00  0.00000000E+00  0.00000000E+00
  0.00000000E+00  0.00000000E+00  0.00000000E+00
  0.00000000E+00  0.00000000E+00  0.00000000E+00
  0.00000000E+00  0.00000000E+00  0.00000000E+00
  0.00000000E+00  0.00000000E+00  0.00000000E+00
  0.00000000E+00  0.00000000E+00  0.00000000E+00
  0.00000000E+00  0.00000000E+00  0.00000000E+00
