Cs8 Pb8 Br23
1.0
8.456489 0.000000 8.040301
0.000000 11.729847 0.000000
-8.456489 0.000000 8.040301
Cs Pb Br
8 8 23
direct
0.265746 0.244935 0.198916 Cs
0.778231 0.243496 0.714079 Cs
0.722164 0.752215 0.262906 Cs
0.199606 0.755585 0.777662 Cs
0.291602 0.235636 0.749111 Cs
0.792510 0.249900 0.226599 Cs
0.734379 0.748450 0.808441 Cs
0.227162 0.751383 0.256960 Cs
-0.005668 0.000850 -0.000535 Pb
0.491806 0.001572 0.500733 Pb
0.499317 -0.004710 0.000282 Pb
0.000025 0.005631 0.499685 Pb
0.500624 0.496454 0.000116 Pb
0.008889 0.506800 0.500586 Pb
-0.000125 0.498431 -0.000388 Pb
0.514363 0.484845 0.498383 Pb
0.468413 0.746344 0.963983 Br
0.982781 0.755769 0.456089 Br
0.970037 0.249831 0.969444 Br
0.441936 0.239237 0.473785 Br
0.008665 0.749428 0.025410 Br
0.524579 0.246174 0.033649 Br
0.036129 0.258767 0.540993 Br
0.247113 0.471468 0.947680 Br
0.770420 0.482086 0.447066 Br
0.458754 0.528472 0.246311 Br
0.950482 0.535748 0.746152 Br
0.552421 0.026134 0.751056 Br
0.045444 0.035812 0.252363 Br
0.748174 0.971875 0.052638 Br
0.246623 0.976834 0.560919 Br
0.244256 0.019379 0.960371 Br
0.739111 0.037317 0.453768 Br
0.456490 0.958035 0.250334 Br
0.946495 0.965595 0.747185 Br
0.752048 0.526017 0.052482 Br
0.554238 0.458167 0.746634 Br
0.057974 0.468748 0.253847 Br
0.362325 0.664361 0.534663 Br
