Cs8 Pb8 Br23
1.0
8.456489 0.000000 8.040301
0.000000 11.729847 0.000000
-8.456489 0.000000 8.040301
Cs Pb Br
8 8 23
direct
0.269697 0.249768 0.204143 Cs
0.771567 0.237695 0.732084 Cs
0.720262 0.763439 0.245121 Cs
0.201322 0.755704 0.783236 Cs
0.280459 0.244209 0.728426 Cs
0.798028 0.247855 0.226802 Cs
0.735335 0.750160 0.804610 Cs
0.222515 0.750975 0.272934 Cs
0.001177 0.001846 -0.000178 Pb
0.505696 -0.002410 0.497921 Pb
0.498454 -0.000230 -0.000592 Pb
0.004501 0.003778 0.499716 Pb
0.498370 0.496231 0.000715 Pb
-0.003655 0.511579 0.500732 Pb
0.000223 0.499552 0.000675 Pb
0.482593 0.492703 0.504295 Pb
0.473452 0.747873 0.964967 Br
0.972647 0.757329 0.450041 Br
0.977238 0.251161 0.972650 Br
0.474577 0.238010 0.468458 Br
0.012714 0.751085 0.032025 Br
0.529281 0.248049 0.042474 Br
0.014287 0.259418 0.536003 Br
0.247176 0.469754 0.947747 Br
0.451017 0.531622 0.253341 Br
0.947582 0.534203 0.746511 Br
0.547036 0.025387 0.749416 Br
0.050998 0.036372 0.252223 Br
0.753117 0.986323 0.039835 Br
0.259374 0.958833 0.546559 Br
0.248898 0.030638 0.949590 Br
0.752122 0.032663 0.447570 Br
0.453994 0.957942 0.248220 Br
0.952384 0.965679 0.747013 Br
0.751900 0.522540 0.051303 Br
0.236947 0.548406 0.551230 Br
0.539500 0.451315 0.752553 Br
0.048647 0.466079 0.253989 Br
0.663061 0.636078 0.509049 Br
