Cs8 Pb8 Br23
1.0
8.456489 0.000000 8.040301
0.000000 11.729847 0.000000
-8.456489 0.000000 8.040301
Cs Pb Br
8 8 23
direct
0.275385 0.247787 0.193908 Cs
0.772073 0.228591 0.747852 Cs
0.704777 0.766613 0.254860 Cs
0.211596 0.755822 0.782826 Cs
0.253336 0.237102 0.728087 Cs
0.803051 0.244417 0.227704 Cs
0.735506 0.762389 0.764249 Cs
0.225792 0.752892 0.300337 Cs
0.008183 -0.001664 0.005980 Pb
0.490524 0.002194 0.494760 Pb
0.503502 -0.000638 -0.004516 Pb
-0.007705 -0.002293 0.499745 Pb
0.508143 0.499866 -0.003803 Pb
-0.001067 0.501449 0.509019 Pb
0.008122 0.502838 0.008358 Pb
0.479089 0.499824 0.488578 Pb
0.490437 0.747463 0.951765 Br
0.953083 0.747307 0.463603 Br
0.989625 0.251061 0.977423 Br
0.436953 0.253361 0.475141 Br
0.041065 0.750574 0.041170 Br
0.525515 0.749040 0.514081 Br
0.541536 0.250447 0.025658 Br
-0.004534 0.251639 0.536310 Br
0.260251 0.469012 0.944388 Br
0.463987 0.532832 0.234664 Br
0.955987 0.538109 0.757232 Br
0.540122 0.029226 0.747414 Br
0.054753 0.035846 0.255994 Br
0.758913 0.980675 0.039816 Br
0.243745 0.960816 0.550572 Br
0.254307 0.029120 0.950421 Br
0.738811 0.031317 0.449170 Br
0.445119 0.967555 0.242776 Br
0.960921 0.970377 0.750259 Br
0.761882 0.525467 0.057710 Br
0.240858 0.532696 0.567299 Br
0.059812 0.464845 0.264729 Br
0.658659 0.471524 0.617257 Br
