Cs8 Pb8 Br23                            
   1.0000000000000000     
     8.4564889999999995    0.0000000000000000    8.0403009999999995
     0.0000000000000000   11.7298469999999995    0.0000000000000000
    -8.4564889999999995    0.0000000000000000    8.0403009999999995
   Cs   Pb   Br
     8     8    23
Direct
  0.2651630000000011  0.2393390000000011  0.2000120000000010
  0.7759929999999997  0.2346059999999994  0.7296260000000032
  0.7141220000000033  0.7706400000000002  0.2621559999999974
  0.2139099999999985  0.7531749999999988  0.7780709999999971
  0.2744670000000013  0.2442149999999970  0.7288810000000012
  0.8017269999999996  0.2471689999999995  0.2267620000000008
  0.7286539999999988  0.7548719999999989  0.7905969999999982
  0.2238650000000035  0.7571599999999989  0.2931450000000027
  0.0031350000000003  0.9970349999999968  0.9998450000000005
  0.4964870000000019  0.0022459999999995  0.4994659999999982
  0.4997970000000009  0.0005129999999980  0.0000649999999993
  0.9971650000000025  0.9996790000000004  0.5004989999999978
  0.5096800000000030  0.4961040000000025  0.9966229999999996
  0.9982370000000031  0.5022749999999974  0.4972690000000028
  0.0053539999999970  0.5006160000000008  0.9977960000000010
  0.4892800000000008  0.4991240000000019  0.5102819999999966
  0.4769130000000033  0.7472410000000025  0.9743309999999994
  0.9627800000000022  0.7495169999999973  0.4618460000000013
  0.9803980000000010  0.2490749999999977  0.9737310000000008
  0.4478920000000031  0.2536150000000035  0.4710170000000033
  0.0392420000000016  0.7485289999999978  0.0317470000000029
  0.5353989999999982  0.7476879999999966  0.5213859999999997
  0.5343790000000013  0.2506040000000027  0.0435170000000014
  0.0157730000000029  0.2524999999999977  0.5329580000000007
  0.2564100000000025  0.4669510000000017  0.9522169999999974
  0.9457549999999983  0.5310970000000026  0.7431059999999974
  0.5429749999999984  0.0325149999999965  0.7522939999999991
  0.0474529999999973  0.0284819999999968  0.2531350000000003
  0.7548129999999986  0.9766300000000001  0.0402089999999973
  0.2490019999999973  0.9626990000000006  0.5500710000000026
  0.2504050000000007  0.0304100000000034  0.9480769999999978
  0.7440369999999987  0.0392810000000026  0.4521500000000032
  0.4465190000000021  0.9679909999999978  0.2478600000000029
  0.9527009999999976  0.9636679999999984  0.7480479999999972
  0.7579950000000011  0.5359229999999968  0.0504419999999968
  0.2414460000000034  0.5383970000000033  0.5507840000000002
  0.5586089999999970  0.4633260000000021  0.7541030000000006
  0.0579299999999989  0.4676710000000028  0.2510550000000009
  0.6144559999999970  0.4950890000000001  0.3422079999999994

  0.00000000E+00  0.00000000E+00  0.00000000E+00
  0.00000000E+00  0.00000000E+00  0.00000000E+00
  0.00000000E+00  0.00000000E+00  0.00000000E+00
  0.00000000E+00  0.00000000E+00  0.00000000E+00
  0.00000000E+00  0.00000000E+00  0.00000000E+00
  0.00000000E+00  0.00000000E+00  0.00000000E+00
  0.00000000E+00  0.00000000E+00  0.00000000E+00
  0.00000000E+00  0.00000000E+00  0.00000000E+00
  0.00000000E+00  0.00000000E+00  0.00000000E+00
  0.00000000E+00  0.00000000E+00  0.00000000E+00
  0.00000000E+00  0.00000000E+00  0.00000000E+00
  0.00000000E+00  0.00000000E+00  0.00000000E+00
  0.00000000E+00  0.00000000E+00  0.00000000E+00
  0.00000000E+00  0.00000000E+00  0.00000000E+00
  0.00000000E+00  0.00000000E+00  0.00000000E+00
  0.00000000E+00  0.00000000E+00  0.00000000E+00
  0.00000000E+00  0.00000000E+00  0.00000000E+00
  0.00000000E+00  0.00000000E+00  0.00000000E+00
  0.00000000E+00  0.00000000E+00  0.00000000E+00
  0.00000000E+00  0.00000000E+00  0.00000000E+00
  0.00000000E+00  0.00000000E+00  0.00000000E+00
  0.00000000E+00  0.00000000E+00  0.00000000E+00
  0.00000000E+00  0.00000000E+00  0.00000000E+00
  0.00000000E+00  0.00000000E+00  0.00000000E+00
  0.00000000E+00  0.00000000E+00  0.00000000E+00
  0.00000000E+00  0.00000000E+00  0.00000000E+00
  0.00000000E+00  0.00000000E+00  0.00000000E+00
  0.00000000E+00  0.00000000E+00  0.00000000E+00
  0.00000000E+00  0.00000000E+00  0.00000000E+00
  0.00000000E+00  0.00000000E+00  0.00000000E+00
  0.00000000E+00  0.00000000E+00  0.00000000E+00
  0.00000000E+00  0.00000000E+00  0.00000000E+00
  0.00000000E+00  0.00000000E+00  0.00000000E+00
  0.00000000E+00  0.00000000E+00  0.00000000E+00
  0.00000000E+00  0.00000000E+00  0.00000000E+00
  0.00000000E+00  0.00000000E+00  0.00000000E+00
  0.00000000E+00  0.00000000E+00  0.00000000E+00
  0.00000000E+00  0.00000000E+00  0.00000000E+00
  0.00000000E+00  0.00000000E+00  0.00000000E+00
