Cs4 Pb4 Br12                            
   1.0000000000000000     
     8.4014815089720543    0.0000000000000000    0.0000000000000000
     0.0000000000000000   12.1167220181788018    0.0000000000000000
     0.0000000000000000    0.0000000000000000    7.9319807318811781
   Cs   Pb   Br
     4     4    12
Direct
  0.0628047040082649  0.2500000000000000  0.4795968734913600
  0.4371952959917422  0.7500000000000000  0.9795968734913600
  0.5628047040082578  0.2500000000000000  0.0204031265086400
  0.9371952959917422  0.7500000000000000  0.5204031265086400
  0.0000000000000000  0.0000000000000000  0.0000000000000000
  0.5000000000000000  0.0000000000000000  0.5000000000000000
  0.5000000000000000  0.5000000000000000  0.5000000000000000
  0.0000000000000000  0.5000000000000000  0.0000000000000000
  0.5019757339115145  0.7500000000000000  0.4533960729130442
  0.9980242660884855  0.2500000000000000  0.9533960729130442
  0.0019757339115145  0.7500000000000000  0.0466039270869558
  0.4980242660884855  0.2500000000000000  0.5466039270869558
  0.3076499631654315  0.4720310985248304  0.1859984476471794
  0.1923500368345756  0.5279689014751696  0.6859984476471794
  0.8076499631654244  0.0279689014751696  0.3140015523528206
  0.6923500368345756  0.9720310985248304  0.8140015523528206
  0.3076499631654315  0.0279689014751696  0.1859984476471794
  0.1923500368345756  0.9720310985248304  0.6859984476471794
  0.6923500368345756  0.5279689014751696  0.8140015523528206
  0.8076499631654244  0.4720310985248304  0.3140015523528206

  0.00000000E+00  0.00000000E+00  0.00000000E+00
  0.00000000E+00  0.00000000E+00  0.00000000E+00
  0.00000000E+00  0.00000000E+00  0.00000000E+00
  0.00000000E+00  0.00000000E+00  0.00000000E+00
  0.00000000E+00  0.00000000E+00  0.00000000E+00
  0.00000000E+00  0.00000000E+00  0.00000000E+00
  0.00000000E+00  0.00000000E+00  0.00000000E+00
  0.00000000E+00  0.00000000E+00  0.00000000E+00
  0.00000000E+00  0.00000000E+00  0.00000000E+00
  0.00000000E+00  0.00000000E+00  0.00000000E+00
  0.00000000E+00  0.00000000E+00  0.00000000E+00
  0.00000000E+00  0.00000000E+00  0.00000000E+00
  0.00000000E+00  0.00000000E+00  0.00000000E+00
  0.00000000E+00  0.00000000E+00  0.00000000E+00
  0.00000000E+00  0.00000000E+00  0.00000000E+00
  0.00000000E+00  0.00000000E+00  0.00000000E+00
  0.00000000E+00  0.00000000E+00  0.00000000E+00
  0.00000000E+00  0.00000000E+00  0.00000000E+00
  0.00000000E+00  0.00000000E+00  0.00000000E+00
  0.00000000E+00  0.00000000E+00  0.00000000E+00
