Cs7 Pb8 Br24
1.0
8.420018 0.000000 8.077981
0.000000 11.763808 0.000000
-8.420018 0.000000 8.077981
Cs Pb Br Cs
6 8 24 1
direct
0.270940 0.250001 0.204892 Cs
0.771913 0.250001 0.717625 Cs
0.205518 0.750000 0.757874 Cs
0.300217 0.249999 0.729173 Cs
0.787348 0.250000 0.220756 Cs
0.722532 0.750000 0.792281 Cs
-0.000864 -0.002753 0.000652 Pb
0.506158 -0.001049 0.493736 Pb
0.500462 -0.003542 0.000796 Pb
-0.000169 0.001668 0.500135 Pb
0.500464 0.503543 0.000805 Pb
-0.000171 0.498331 0.500139 Pb
-0.000861 0.502750 0.000654 Pb
0.506156 0.501052 0.493730 Pb
0.457957 0.750001 0.952971 Br
0.982592 0.749997 0.478556 Br
0.968795 0.250001 0.971298 Br
0.459605 0.250000 0.468073 Br
0.053627 0.750002 0.027055 Br
0.525495 0.750000 0.536098 Br
0.528777 0.249999 0.028742 Br
0.036792 0.249998 0.551594 Br
0.248561 0.463791 0.946643 Br
0.751713 0.443196 0.459320 Br
0.435287 0.522217 0.246022 Br
0.947301 0.536574 0.749876 Br
0.549075 0.034325 0.750567 Br
0.049580 0.038434 0.253162 Br
0.752928 0.965640 0.047571 Br
0.254542 0.972353 0.548390 Br
0.248562 0.036211 0.946644 Br
0.751714 0.056803 0.459320 Br
0.435287 0.977783 0.246022 Br
0.947305 0.963427 0.749874 Br
0.752928 0.534361 0.047571 Br
0.254542 0.527646 0.548389 Br
0.549073 0.465677 0.750567 Br
0.049574 0.461563 0.253164 Br
0.230507 0.750000 0.297133 Cs
