Cs64 Pb64 Br191
1.0
16.840035 0.000000 16.155961
0.000000 23.527616 0.000000
-16.840035 0.000000 16.155961
Cs Pb Br Cs Pb Br
56 56 168 8 8 23
direct
0.885957 0.874964 0.353730 Cs
0.136009 0.874945 0.603834 Cs
0.886110 0.375041 0.353434 Cs
0.135364 0.374701 0.603960 Cs
0.888420 0.876600 0.854039 Cs
0.135827 0.875135 0.103162 Cs
0.386158 0.874444 0.354416 Cs
0.637603 0.875251 0.603333 Cs
0.886426 0.375051 0.854075 Cs
0.135873 0.374844 0.103488 Cs
0.385550 0.875471 0.854572 Cs
0.635917 0.875197 0.103612 Cs
0.386493 0.373927 0.850550 Cs
0.637721 0.374491 0.103378 Cs
0.102664 0.124770 0.385668 Cs
0.353064 0.122754 0.636547 Cs
0.101174 0.625172 0.385402 Cs
0.103451 0.124908 0.886037 Cs
0.354103 0.124945 0.136167 Cs
0.603396 0.124696 0.385167 Cs
0.854004 0.124924 0.636234 Cs
0.103594 0.625046 0.886326 Cs
0.350983 0.625221 0.134787 Cs
0.853253 0.625679 0.636470 Cs
0.603741 0.125145 0.886506 Cs
0.853853 0.124972 0.136085 Cs
0.604233 0.626098 0.885563 Cs
0.853830 0.625068 0.136514 Cs
0.896594 0.875083 0.114018 Cs
0.146138 0.875050 0.363591 Cs
0.896566 0.374868 0.114103 Cs
0.146609 0.374312 0.364154 Cs
0.896310 0.875036 0.613956 Cs
0.146731 0.874997 0.864145 Cs
0.395989 0.874937 0.114319 Cs
0.646634 0.874208 0.364529 Cs
0.896768 0.374792 0.613930 Cs
0.147234 0.374868 0.863309 Cs
0.394164 0.374560 0.113445 Cs
0.396550 0.874703 0.614361 Cs
0.647240 0.876938 0.865278 Cs
0.644766 0.374908 0.863563 Cs
0.113860 0.124986 0.146351 Cs
0.364139 0.124067 0.395976 Cs
0.114160 0.625056 0.146815 Cs
0.114123 0.125094 0.646399 Cs
0.363945 0.125274 0.896430 Cs
0.613900 0.124992 0.146703 Cs
0.864103 0.124863 0.396200 Cs
0.114147 0.625072 0.645693 Cs
0.365236 0.625044 0.896197 Cs
0.614636 0.625896 0.143613 Cs
0.864058 0.625199 0.396566 Cs
0.614151 0.124641 0.646056 Cs
0.864212 0.125064 0.896678 Cs
0.863781 0.625140 0.895840 Cs
0.750295 0.750375 0.249873 Pb
0.000036 0.750080 0.500101 Pb
0.750238 0.249592 0.249880 Pb
0.999880 0.249577 0.499916 Pb
0.751713 0.753129 0.752973 Pb
0.000042 0.749896 0.000120 Pb
0.249532 0.750741 0.249679 Pb
0.500281 0.744262 0.502899 Pb
0.750341 0.250129 0.750318 Pb
0.000054 0.250109 0.000010 Pb
0.250261 0.749548 0.749857 Pb
0.499993 0.750805 0.000068 Pb
0.249505 0.248994 0.750676 Pb
0.500019 0.250306 0.000209 Pb
0.000096 0.750233 0.249956 Pb
0.249507 0.749565 0.500339 Pb
0.000015 0.250005 0.249972 Pb
0.000451 0.750158 0.750240 Pb
0.249980 0.750317 0.999804 Pb
0.500045 0.749085 0.250309 Pb
0.750745 0.750591 0.500328 Pb
0.999854 0.250102 0.750054 Pb
0.249800 0.249708 0.000008 Pb
0.750248 0.249284 0.499805 Pb
0.500276 0.753416 0.751549 Pb
0.750240 0.750254 0.000352 Pb
0.500558 0.249446 0.749987 Pb
0.750199 0.250007 0.000028 Pb
0.999983 0.000072 0.249970 Pb
0.249849 0.998822 0.499923 Pb
0.000070 0.499859 0.249983 Pb
0.000117 0.000137 0.749943 Pb
0.249924 0.000169 0.000031 Pb
0.500026 0.999478 0.250000 Pb
0.750280 0.000353 0.499889 Pb
0.000047 0.500242 0.749982 Pb
0.249663 0.499947 0.999662 Pb
0.749924 0.499302 0.500517 Pb
0.500042 0.000694 0.750248 Pb
0.750196 0.000285 0.000184 Pb
0.499573 0.502397 0.751416 Pb
0.750401 0.500091 1.000006 Pb
0.750090 0.999907 0.249970 Pb
0.000052 0.999805 0.499998 Pb
0.750350 0.499891 0.249664 Pb
0.999181 0.499789 0.499915 Pb
0.750268 0.000756 0.750273 Pb
0.000139 0.000217 0.000148 Pb
0.249898 0.000135 0.249910 Pb
0.500267 0.997662 0.500183 Pb
0.750654 0.499518 0.749874 Pb
0.000025 0.500162 0.000095 Pb
0.249790 0.999372 0.750044 Pb
0.499984 0.000508 0.000175 Pb
0.250062 0.500606 0.750037 Pb
0.500250 0.499367 0.000710 Pb
0.984418 0.125094 0.230838 Br
0.233389 0.123231 0.479203 Br
0.984647 0.624990 0.231100 Br
0.231038 0.624522 0.480264 Br
0.984620 0.125209 0.730610 Br
0.234190 0.125058 0.980144 Br
0.484660 0.125434 0.232341 Br
0.733451 0.125011 0.479590 Br
0.984392 0.625084 0.730211 Br
0.235573 0.624949 0.979870 Br
0.484032 0.624570 0.224265 Br
0.484518 0.126139 0.729704 Br
0.734435 0.125312 0.980463 Br
0.734153 0.625154 0.980377 Br
0.230183 0.875288 0.233733 Br
0.483795 0.863589 0.486148 Br
0.230757 0.374702 0.234277 Br
0.230906 0.874225 0.734318 Br
0.480906 0.875404 0.985129 Br
0.730229 0.874892 0.234509 Br
0.980425 0.874735 0.484378 Br
0.234438 0.374654 0.732538 Br
0.479259 0.375610 0.983380 Br
0.731937 0.374926 0.233706 Br
0.980261 0.374657 0.484400 Br
0.730304 0.876625 0.735078 Br
0.981403 0.875026 0.984936 Br
0.980748 0.375222 0.984606 Br
0.769401 0.124892 0.265724 Br
0.019377 0.124687 0.515973 Br
0.768104 0.624874 0.266510 Br
0.018451 0.624622 0.515908 Br
0.769925 0.126050 0.765893 Br
0.019382 0.125208 0.015726 Br
0.270056 0.124924 0.265702 Br
0.518485 0.119363 0.514668 Br
0.765839 0.626145 0.764823 Br
0.019807 0.624942 0.016071 Br
0.268492 0.124325 0.766211 Br
0.519240 0.125764 0.016192 Br
0.273056 0.624308 0.764172 Br
0.518914 0.624513 0.013050 Br
0.015418 0.875092 0.269330 Br
0.266719 0.873872 0.520195 Br
0.015764 0.375047 0.269594 Br
0.016947 0.875083 0.769049 Br
0.265863 0.875067 0.019108 Br
0.515346 0.874042 0.270593 Br
0.766203 0.875396 0.517650 Br
0.015977 0.375369 0.769330 Br
0.265065 0.375041 0.018719 Br
0.765812 0.374442 0.519599 Br
0.516269 0.877150 0.771972 Br
0.765534 0.875221 0.019759 Br
0.516758 0.377274 0.760880 Br
0.766400 0.375304 0.019131 Br
0.873867 0.982032 0.224584 Br
0.123933 0.981596 0.474585 Br
0.873862 0.482254 0.224428 Br
0.120922 0.481802 0.473517 Br
0.873900 0.982118 0.724513 Br
0.123959 0.982133 0.974507 Br
0.374032 0.981952 0.224742 Br
0.623620 0.981616 0.474448 Br
0.873895 0.482449 0.724058 Br
0.124083 0.482061 0.974007 Br
0.374469 0.481892 0.225418 Br
0.374118 0.981977 0.724578 Br
0.623814 0.982765 0.975139 Br
0.623599 0.481922 0.974841 Br
0.974534 0.017858 0.373971 Br
0.224522 0.017885 0.623831 Br
0.973891 0.517882 0.373962 Br
0.224894 0.517173 0.623649 Br
0.974667 0.018058 0.873877 Br
0.224642 0.018138 0.123967 Br
0.473969 0.015558 0.374437 Br
0.724649 0.018032 0.623856 Br
0.974537 0.518093 0.873787 Br
0.224600 0.517545 0.123338 Br
0.474595 0.018393 0.873790 Br
0.724518 0.018110 0.123938 Br
0.476541 0.513086 0.867662 Br
0.724615 0.517901 0.123917 Br
0.025598 0.767883 0.126171 Br
0.275386 0.767965 0.376081 Br
0.025473 0.267931 0.126122 Br
0.025411 0.767966 0.626126 Br
0.275650 0.767651 0.875988 Br
0.524981 0.768204 0.127130 Br
0.775251 0.767554 0.375908 Br
0.025399 0.267811 0.626103 Br
0.275629 0.268211 0.875909 Br
0.525382 0.269343 0.126450 Br
0.775636 0.267989 0.376156 Br
0.527925 0.767319 0.627198 Br
0.778638 0.769215 0.877103 Br
0.775326 0.268369 0.875992 Br
0.126256 0.231968 0.275540 Br
0.375873 0.228813 0.525285 Br
0.126047 0.732383 0.275732 Br
0.125925 0.232274 0.775618 Br
0.376152 0.232120 0.025555 Br
0.626061 0.232514 0.275561 Br
0.875771 0.231800 0.525540 Br
0.126525 0.731466 0.775300 Br
0.376264 0.732212 0.025340 Br
0.876494 0.732146 0.525632 Br
0.626115 0.232021 0.775587 Br
0.876056 0.232062 0.025470 Br
0.626765 0.738097 0.780689 Br
0.876110 0.731890 0.025764 Br
0.873843 0.767962 0.224555 Br
0.124468 0.768162 0.474686 Br
0.873922 0.267810 0.224553 Br
0.123740 0.266639 0.474278 Br
0.874433 0.768621 0.725438 Br
0.123992 0.767787 0.974402 Br
0.374014 0.767706 0.225741 Br
0.623991 0.763601 0.474822 Br
0.873746 0.268342 0.724523 Br
0.123950 0.268082 0.974290 Br
0.374080 0.268262 0.224760 Br
0.374570 0.768144 0.724557 Br
0.623961 0.768023 0.974465 Br
0.623829 0.268311 0.974624 Br
0.974405 0.232061 0.373947 Br
0.225893 0.232457 0.623696 Br
0.974423 0.732157 0.374002 Br
0.224880 0.731866 0.623807 Br
0.974466 0.232184 0.873873 Br
0.224642 0.231949 0.123756 Br
0.474036 0.232601 0.374178 Br
0.724260 0.232150 0.623831 Br
0.974703 0.731980 0.873914 Br
0.224362 0.732389 0.123778 Br
0.475007 0.232687 0.874021 Br
0.724441 0.232033 0.123902 Br
0.473597 0.734127 0.874675 Br
0.724856 0.732239 0.123712 Br
0.126190 0.017987 0.275463 Br
0.376377 0.016335 0.525473 Br
0.126260 0.517643 0.275681 Br
0.126183 0.017921 0.775384 Br
0.376127 0.018070 0.025454 Br
0.626012 0.017600 0.275501 Br
0.875895 0.018095 0.525451 Br
0.127021 0.518006 0.774851 Br
0.376624 0.518034 0.024582 Br
0.873633 0.517510 0.526665 Br
0.626090 0.018581 0.775469 Br
0.876109 0.017987 0.025532 Br
0.625823 0.517621 0.775255 Br
0.876020 0.518190 0.025372 Br
0.025527 0.982216 0.126133 Br
0.275663 0.981508 0.376178 Br
0.025508 0.482099 0.126106 Br
0.025444 0.982061 0.626089 Br
0.275322 0.982193 0.876061 Br
0.525335 0.982203 0.126281 Br
0.775419 0.982096 0.376122 Br
0.025385 0.482074 0.626076 Br
0.276873 0.481909 0.875464 Br
0.524986 0.481247 0.124007 Br
0.774821 0.482408 0.376451 Br
0.525907 0.981136 0.626131 Br
0.775762 0.982231 0.876091 Br
0.775212 0.482031 0.875866 Br
0.385013 0.373624 0.354785 Cs
0.637707 0.371124 0.603023 Cs
0.612523 0.625346 0.384930 Cs
0.360988 0.622266 0.635830 Cs
0.379652 0.367141 0.613942 Cs
0.649226 0.374573 0.363787 Cs
0.625094 0.633776 0.661367 Cs
0.356627 0.626901 0.392927 Cs
0.249859 0.249436 0.249923 Pb
0.499745 0.247709 0.500234 Pb
0.500064 0.250673 0.250043 Pb
0.249034 0.247300 0.499201 Pb
0.500121 0.500832 0.247069 Pb
0.246963 0.500157 0.499398 Pb
0.249395 0.499412 0.249840 Pb
0.496186 0.498902 0.491873 Pb
0.487537 0.626927 0.739661 Br
0.736544 0.624639 0.484354 Br
0.729165 0.375678 0.734055 Br
0.477593 0.370768 0.493733 Br
0.266127 0.625007 0.263021 Br
0.515243 0.376557 0.273286 Br
0.259485 0.373640 0.513082 Br
0.376036 0.481903 0.721373 Br
0.620773 0.480214 0.475256 Br
0.477773 0.531864 0.373648 Br
0.720249 0.516456 0.624064 Br
0.525164 0.266542 0.626054 Br
0.275795 0.266711 0.375949 Br
0.626100 0.732076 0.274522 Br
0.376753 0.728624 0.524758 Br
0.373972 0.264310 0.727121 Br
0.623385 0.268038 0.474739 Br
0.478090 0.723969 0.376378 Br
0.728804 0.739016 0.625083 Br
0.625690 0.517969 0.273472 Br
0.372811 0.512414 0.522604 Br
0.275285 0.482298 0.375490 Br
0.510789 0.597419 0.563242 Br
