Cs7 Pb8 Br24                            
   1.0000000000000000     
     8.4200180000000007    0.0000000000000000    8.0779809999999994
     0.0000000000000000   11.7638079999999992    0.0000000000000000
    -8.4200180000000007    0.0000000000000000    8.0779809999999994
   Cs   Pb   Br   Cs
     6     8    24     1
Direct
  0.2691069999999982  0.2500009999999975  0.1937300000000022
  0.7720490000000026  0.2500009999999975  0.7197499999999977
  0.2115659999999977  0.7500009999999975  0.7606180000000009
  0.2958429999999979  0.2499979999999979  0.7476679999999973
  0.7902640000000005  0.2499979999999979  0.2222760000000008
  0.2521109999999993  0.7500009999999975  0.2585169999999977
  0.9936330000000027  0.9946300000000008  0.9941800000000001
  0.4947900000000018  0.0060000000000002  0.5002739999999974
  0.5076060000000027  0.9943030000000022  0.0000319999999974
  0.0069400000000002  0.0052280000000025  0.5000670000000014
  0.5076099999999997  0.5057049999999990  0.0000319999999974
  0.0069390000000027  0.4947710000000001  0.5000780000000020
  0.9936319999999981  0.5053679999999972  0.9941680000000019
  0.4947930000000014  0.4939999999999998  0.5002700000000004
  0.4505109999999988  0.7500009999999975  0.9766070000000013
  0.0311099999999982  0.7499949999999984  0.4674690000000012
  0.9729560000000035  0.2500000000000000  0.9676060000000035
  0.4449820000000031  0.2500000000000000  0.4686629999999994
  0.0444030000000026  0.7500020000000021  0.0239970000000014
  0.4716260000000005  0.7500020000000021  0.5230040000000002
  0.5289280000000005  0.2500009999999975  0.0256910000000019
  0.0304980000000015  0.2500000000000000  0.5517820000000029
  0.2468569999999985  0.4734049999999996  0.9535740000000033
  0.7462110000000024  0.4481430000000017  0.4590650000000025
  0.4458569999999966  0.5139080000000007  0.2472959999999986
  0.9434600000000017  0.5418949999999967  0.7414640000000006
  0.5463209999999989  0.0416200000000018  0.7497150000000019
  0.0523049999999969  0.0366080000000011  0.2484380000000002
  0.7527669999999986  0.9716570000000004  0.0692620000000019
  0.2498870000000011  0.9924650000000028  0.5671469999999985
  0.2468590000000006  0.0265989999999974  0.9535720000000012
  0.7462129999999974  0.0518580000000028  0.4590620000000030
  0.4458569999999966  0.9860910000000018  0.2472959999999986
  0.9434589999999972  0.9581030000000013  0.7414630000000031
  0.7527699999999982  0.5283439999999970  0.0692629999999994
  0.2498890000000031  0.5075319999999977  0.5671439999999990
  0.5463209999999989  0.4583790000000008  0.7497169999999969
  0.0523030000000020  0.4633869999999973  0.2484350000000006
  0.7420150000000021  0.7499979999999979  0.3812840000000008

  0.00000000E+00  0.00000000E+00  0.00000000E+00
  0.00000000E+00  0.00000000E+00  0.00000000E+00
  0.00000000E+00  0.00000000E+00  0.00000000E+00
  0.00000000E+00  0.00000000E+00  0.00000000E+00
  0.00000000E+00  0.00000000E+00  0.00000000E+00
  0.00000000E+00  0.00000000E+00  0.00000000E+00
  0.00000000E+00  0.00000000E+00  0.00000000E+00
  0.00000000E+00  0.00000000E+00  0.00000000E+00
  0.00000000E+00  0.00000000E+00  0.00000000E+00
  0.00000000E+00  0.00000000E+00  0.00000000E+00
  0.00000000E+00  0.00000000E+00  0.00000000E+00
  0.00000000E+00  0.00000000E+00  0.00000000E+00
  0.00000000E+00  0.00000000E+00  0.00000000E+00
  0.00000000E+00  0.00000000E+00  0.00000000E+00
  0.00000000E+00  0.00000000E+00  0.00000000E+00
  0.00000000E+00  0.00000000E+00  0.00000000E+00
  0.00000000E+00  0.00000000E+00  0.00000000E+00
  0.00000000E+00  0.00000000E+00  0.00000000E+00
  0.00000000E+00  0.00000000E+00  0.00000000E+00
  0.00000000E+00  0.00000000E+00  0.00000000E+00
  0.00000000E+00  0.00000000E+00  0.00000000E+00
  0.00000000E+00  0.00000000E+00  0.00000000E+00
  0.00000000E+00  0.00000000E+00  0.00000000E+00
  0.00000000E+00  0.00000000E+00  0.00000000E+00
  0.00000000E+00  0.00000000E+00  0.00000000E+00
  0.00000000E+00  0.00000000E+00  0.00000000E+00
  0.00000000E+00  0.00000000E+00  0.00000000E+00
  0.00000000E+00  0.00000000E+00  0.00000000E+00
  0.00000000E+00  0.00000000E+00  0.00000000E+00
  0.00000000E+00  0.00000000E+00  0.00000000E+00
  0.00000000E+00  0.00000000E+00  0.00000000E+00
  0.00000000E+00  0.00000000E+00  0.00000000E+00
  0.00000000E+00  0.00000000E+00  0.00000000E+00
  0.00000000E+00  0.00000000E+00  0.00000000E+00
  0.00000000E+00  0.00000000E+00  0.00000000E+00
  0.00000000E+00  0.00000000E+00  0.00000000E+00
  0.00000000E+00  0.00000000E+00  0.00000000E+00
  0.00000000E+00  0.00000000E+00  0.00000000E+00
  0.00000000E+00  0.00000000E+00  0.00000000E+00
