Cs7 Pb8 Br24
1.0
8.420018 0.000000 8.077981
0.000000 11.763808 0.000000
-8.420018 0.000000 8.077981
Cs Pb Br Cs
6 8 24 1
direct
0.269107 0.250001 0.193730 Cs
0.772049 0.250001 0.719750 Cs
0.211566 0.750001 0.760618 Cs
0.295843 0.249998 0.747668 Cs
0.790264 0.249998 0.222276 Cs
0.252111 0.750001 0.258517 Cs
-0.006367 -0.005370 -0.005820 Pb
0.494790 0.006000 0.500274 Pb
0.507606 -0.005697 0.000032 Pb
0.006940 0.005228 0.500067 Pb
0.507610 0.505705 0.000032 Pb
0.006939 0.494771 0.500078 Pb
-0.006368 0.505368 -0.005832 Pb
0.494793 0.494000 0.500270 Pb
0.450511 0.750001 0.976607 Br
1.031110 0.749995 0.467469 Br
0.972956 0.250000 0.967606 Br
0.444982 0.250000 0.468663 Br
0.044403 0.750002 0.023997 Br
0.471626 0.750002 0.523004 Br
0.528928 0.250001 0.025691 Br
0.030498 0.250000 0.551782 Br
0.246857 0.473405 0.953574 Br
0.746211 0.448143 0.459065 Br
0.445857 0.513908 0.247296 Br
0.943460 0.541895 0.741464 Br
0.546321 0.041620 0.749715 Br
0.052305 0.036608 0.248438 Br
0.752767 0.971657 0.069262 Br
0.249887 0.992465 0.567147 Br
0.246859 0.026599 0.953572 Br
0.746213 0.051858 0.459062 Br
0.445857 0.986091 0.247296 Br
0.943459 0.958103 0.741463 Br
0.752770 0.528344 0.069263 Br
0.249889 0.507532 0.567144 Br
0.546321 0.458379 0.749717 Br
0.052303 0.463387 0.248435 Br
0.742015 0.749998 1.381284 Cs
