Cs4 Pb4 Br12                            
   1.0000000000000000     
     8.4110740014707215    0.0000000000000000    0.0000000000000000
     0.0000000000000000   11.9990839403324063    0.0000000000000000
     0.0000000000000000    0.0000000000000000    7.9837780784729970
   Cs   Pb   Br
     4     4    12
Direct
  0.0632906624858265  0.2500000000000000  0.4794714716305748
  0.4367093375141806  0.7500000000000000  0.9794714716305748
  0.5632906624858194  0.2500000000000000  0.0205285283694252
  0.9367093375141806  0.7500000000000000  0.5205285283694252
  0.0000000000000000  0.0000000000000000  0.0000000000000000
  0.5000000000000000  0.0000000000000000  0.5000000000000000
  0.5000000000000000  0.5000000000000000  0.5000000000000000
  0.0000000000000000  0.5000000000000000  0.0000000000000000
  0.5034510729757926  0.7500000000000000  0.4460980672523860
  0.9965489270242074  0.2500000000000000  0.9460980672523860
  0.0034510729757926  0.7500000000000000  0.0539019327476140
  0.4965489270242074  0.2500000000000000  0.5539019327476140
  0.3038660447832555  0.4694682906992398  0.1909373690640805
  0.1961339552167516  0.5305317093007602  0.6909373690640805
  0.8038660447832484  0.0305317093007602  0.3090626309359195
  0.6961339552167516  0.9694682906992398  0.8090626309359195
  0.3038660447832555  0.0305317093007602  0.1909373690640805
  0.1961339552167516  0.9694682906992398  0.6909373690640805
  0.6961339552167516  0.5305317093007602  0.8090626309359195
  0.8038660447832484  0.4694682906992398  0.3090626309359195

  0.00000000E+00  0.00000000E+00  0.00000000E+00
  0.00000000E+00  0.00000000E+00  0.00000000E+00
  0.00000000E+00  0.00000000E+00  0.00000000E+00
  0.00000000E+00  0.00000000E+00  0.00000000E+00
  0.00000000E+00  0.00000000E+00  0.00000000E+00
  0.00000000E+00  0.00000000E+00  0.00000000E+00
  0.00000000E+00  0.00000000E+00  0.00000000E+00
  0.00000000E+00  0.00000000E+00  0.00000000E+00
  0.00000000E+00  0.00000000E+00  0.00000000E+00
  0.00000000E+00  0.00000000E+00  0.00000000E+00
  0.00000000E+00  0.00000000E+00  0.00000000E+00
  0.00000000E+00  0.00000000E+00  0.00000000E+00
  0.00000000E+00  0.00000000E+00  0.00000000E+00
  0.00000000E+00  0.00000000E+00  0.00000000E+00
  0.00000000E+00  0.00000000E+00  0.00000000E+00
  0.00000000E+00  0.00000000E+00  0.00000000E+00
  0.00000000E+00  0.00000000E+00  0.00000000E+00
  0.00000000E+00  0.00000000E+00  0.00000000E+00
  0.00000000E+00  0.00000000E+00  0.00000000E+00
  0.00000000E+00  0.00000000E+00  0.00000000E+00
