Cs4 Pb4 Br12                            
   1.0000000000000000     
     8.4110740014707215    0.0000000000000000    0.0000000000000000
     0.0000000000000000   11.9990839403324063    0.0000000000000000
     0.0000000000000000    0.0000000000000000    7.9837780784729970
   Cs   Pb   Br
     4     4    12
Direct
  0.0632906624858272  0.2500000000000000  0.4794714716305772
  0.4367093375141800  0.7500000000000000  0.9794714716305775
  0.5632906624858204  0.2500000000000000  0.0205285283694228
  0.9367093375141796  0.7500000000000000  0.5205285283694225
 -0.0000000000000000  0.0000000000000000  0.0000000000000000
  0.5000000000000000  0.0000000000000000  0.5000000000000000
  0.5000000000000000  0.5000000000000000  0.5000000000000000
 -0.0000000000000000  0.5000000000000000  0.0000000000000000
  0.5034510729757944  0.7500000000000000  0.4460980672523833
  0.9965489270242056  0.2500000000000000  0.9460980672523832
  0.0034510729757945  0.7500000000000000  0.0539019327476167
  0.4965489270242055  0.2500000000000000  0.5539019327476168
  0.3038660447832571  0.4694682906992373  0.1909373690640777
  0.1961339552167499  0.5305317093007627  0.6909373690640777
  0.8038660447832500  0.0305317093007627  0.3090626309359224
  0.6961339552167500  0.9694682906992373  0.8090626309359223
  0.3038660447832571  0.0305317093007627  0.1909373690640777
  0.1961339552167499  0.9694682906992373  0.6909373690640777
  0.6961339552167500  0.5305317093007627  0.8090626309359223
  0.8038660447832500  0.4694682906992373  0.3090626309359224

  0.00000000E+00  0.00000000E+00  0.00000000E+00
  0.00000000E+00  0.00000000E+00  0.00000000E+00
  0.00000000E+00  0.00000000E+00  0.00000000E+00
  0.00000000E+00  0.00000000E+00  0.00000000E+00
  0.00000000E+00  0.00000000E+00  0.00000000E+00
  0.00000000E+00  0.00000000E+00  0.00000000E+00
  0.00000000E+00  0.00000000E+00  0.00000000E+00
  0.00000000E+00  0.00000000E+00  0.00000000E+00
  0.00000000E+00  0.00000000E+00  0.00000000E+00
  0.00000000E+00  0.00000000E+00  0.00000000E+00
  0.00000000E+00  0.00000000E+00  0.00000000E+00
  0.00000000E+00  0.00000000E+00  0.00000000E+00
  0.00000000E+00  0.00000000E+00  0.00000000E+00
  0.00000000E+00  0.00000000E+00  0.00000000E+00
  0.00000000E+00  0.00000000E+00  0.00000000E+00
  0.00000000E+00  0.00000000E+00  0.00000000E+00
  0.00000000E+00  0.00000000E+00  0.00000000E+00
  0.00000000E+00  0.00000000E+00  0.00000000E+00
  0.00000000E+00  0.00000000E+00  0.00000000E+00
  0.00000000E+00  0.00000000E+00  0.00000000E+00
