Cs4 Pb4 Br12                            
   1.0000000000000000     
     8.5042177738574694    0.0000000000000000    0.0000000000000000
     0.0000000000000000   11.6782319788560400    0.0000000000000000
     0.0000000000000000    0.0000000000000000    8.1587603592473741
   Cs   Pb   Br
     4     4    12
Direct
  0.0609532780342263  0.2500000000000000  0.4805331235823544
  0.4390467219657737  0.7500000000000000  0.9805331235823544
  0.5609532780342263  0.2500000000000000  0.0194668764176456
  0.9390467219657737  0.7500000000000000  0.5194668764176456
  0.0000000000000000  0.0000000000000000  0.0000000000000000
  0.5000000000000000  0.0000000000000000  0.5000000000000000
  0.5000000000000000  0.5000000000000000  0.5000000000000000
  0.0000000000000000  0.5000000000000000  0.0000000000000000
  0.5121187909395033  0.7500000000000000  0.4261004749446542
  0.9878812090604967  0.2500000000000000  0.9261004749446542
  0.0121187909395033  0.7500000000000000  0.0738995250553458
  0.4878812090604967  0.2500000000000000  0.5738995250553458
  0.2925027190940384  0.4630032702283273  0.2042021581756543
  0.2074972809059616  0.5369967297716727  0.7042021581756615
  0.7925027190940384  0.0369967297716727  0.2957978418243457
  0.7074972809059616  0.9630032702283273  0.7957978418243385
  0.2925027190940384  0.0369967297716727  0.2042021581756543
  0.2074972809059616  0.9630032702283273  0.7042021581756615
  0.7074972809059616  0.5369967297716727  0.7957978418243385
  0.7925027190940384  0.4630032702283273  0.2957978418243457

  0.00000000E+00  0.00000000E+00  0.00000000E+00
  0.00000000E+00  0.00000000E+00  0.00000000E+00
  0.00000000E+00  0.00000000E+00  0.00000000E+00
  0.00000000E+00  0.00000000E+00  0.00000000E+00
  0.00000000E+00  0.00000000E+00  0.00000000E+00
  0.00000000E+00  0.00000000E+00  0.00000000E+00
  0.00000000E+00  0.00000000E+00  0.00000000E+00
  0.00000000E+00  0.00000000E+00  0.00000000E+00
  0.00000000E+00  0.00000000E+00  0.00000000E+00
  0.00000000E+00  0.00000000E+00  0.00000000E+00
  0.00000000E+00  0.00000000E+00  0.00000000E+00
  0.00000000E+00  0.00000000E+00  0.00000000E+00
  0.00000000E+00  0.00000000E+00  0.00000000E+00
  0.00000000E+00  0.00000000E+00  0.00000000E+00
  0.00000000E+00  0.00000000E+00  0.00000000E+00
  0.00000000E+00  0.00000000E+00  0.00000000E+00
  0.00000000E+00  0.00000000E+00  0.00000000E+00
  0.00000000E+00  0.00000000E+00  0.00000000E+00
  0.00000000E+00  0.00000000E+00  0.00000000E+00
  0.00000000E+00  0.00000000E+00  0.00000000E+00
