Cs8 Pb8 Br23                            
   1.0000000000000000     
     8.4564889999999995    0.0000000000000000    8.0403009999999995
     0.0000000000000000   11.7298469999999995    0.0000000000000000
    -8.4564889999999995    0.0000000000000000    8.0403009999999995
   Cs   Pb   Br
     8     8    23
Direct
  0.2590649999999997  0.2413209999999992  0.1997479999999996
  0.7811000000000021  0.2463460000000026  0.7113579999999970
  0.7274230000000017  0.7577629999999971  0.2651079999999979
  0.2003690000000020  0.7508589999999984  0.7754970000000014
  0.2841370000000012  0.2469370000000026  0.7316039999999973
  0.7969340000000003  0.2494950000000031  0.2286149999999978
  0.7357560000000021  0.7534040000000033  0.8013699999999986
  0.2185649999999981  0.7536339999999981  0.2868610000000018
  0.9996989999999997  0.0001869999999968  0.9992129999999975
  0.4993130000000008  0.0069019999999966  0.4989729999999994
  0.4997290000000021  0.0005359999999968  0.0002500000000012
  0.0010770000000022  0.0002229999999983  0.5009519999999981
  0.5014430000000019  0.4983920000000026  0.9920749999999998
  0.0004670000000004  0.5001389999999972  0.5001960000000025
  0.9996349999999978  0.4994930000000011  0.0000670000000014
  0.4995779999999996  0.4932859999999977  0.5041420000000016
  0.4715830000000025  0.7484060000000028  0.9617450000000005
  0.9705799999999982  0.7500640000000018  0.4699960000000019
  0.9704290000000029  0.2498739999999984  0.9719440000000006
  0.4515600000000006  0.2520290000000003  0.4638339999999985
  0.0242089999999990  0.7495130000000003  0.0307609999999983
  0.5257229999999993  0.2519259999999974  0.0462040000000030
  0.0326080000000033  0.2504180000000034  0.5316210000000012
  0.2484650000000030  0.4679969999999969  0.9526820000000029
  0.7456079999999972  0.4686659999999989  0.4476609999999965
  0.9481510000000029  0.5316959999999966  0.7475170000000020
  0.5500350000000012  0.0370169999999987  0.7516450000000034
  0.0461159999999978  0.0276720000000026  0.2528580000000034
  0.7517780000000016  0.9722909999999985  0.0475939999999966
  0.2550770000000000  0.9602870000000010  0.5494509999999977
  0.2477069999999983  0.0293319999999966  0.9491799999999984
  0.7470029999999994  0.0343710000000002  0.4505860000000013
  0.4520399999999967  0.9579390000000032  0.2502619999999993
  0.9497270000000029  0.9674019999999999  0.7478300000000004
  0.7496399999999994  0.5304959999999994  0.0525680000000008
  0.2561139999999966  0.5404470000000003  0.5507229999999979
  0.5544930000000008  0.4629320000000021  0.7495609999999999
  0.0540220000000033  0.4688850000000002  0.2526679999999999
  0.4975319999999996  0.6476770000000016  0.3854100000000003

  0.00000000E+00  0.00000000E+00  0.00000000E+00
  0.00000000E+00  0.00000000E+00  0.00000000E+00
  0.00000000E+00  0.00000000E+00  0.00000000E+00
  0.00000000E+00  0.00000000E+00  0.00000000E+00
  0.00000000E+00  0.00000000E+00  0.00000000E+00
  0.00000000E+00  0.00000000E+00  0.00000000E+00
  0.00000000E+00  0.00000000E+00  0.00000000E+00
  0.00000000E+00  0.00000000E+00  0.00000000E+00
  0.00000000E+00  0.00000000E+00  0.00000000E+00
  0.00000000E+00  0.00000000E+00  0.00000000E+00
  0.00000000E+00  0.00000000E+00  0.00000000E+00
  0.00000000E+00  0.00000000E+00  0.00000000E+00
  0.00000000E+00  0.00000000E+00  0.00000000E+00
  0.00000000E+00  0.00000000E+00  0.00000000E+00
  0.00000000E+00  0.00000000E+00  0.00000000E+00
  0.00000000E+00  0.00000000E+00  0.00000000E+00
  0.00000000E+00  0.00000000E+00  0.00000000E+00
  0.00000000E+00  0.00000000E+00  0.00000000E+00
  0.00000000E+00  0.00000000E+00  0.00000000E+00
  0.00000000E+00  0.00000000E+00  0.00000000E+00
  0.00000000E+00  0.00000000E+00  0.00000000E+00
  0.00000000E+00  0.00000000E+00  0.00000000E+00
  0.00000000E+00  0.00000000E+00  0.00000000E+00
  0.00000000E+00  0.00000000E+00  0.00000000E+00
  0.00000000E+00  0.00000000E+00  0.00000000E+00
  0.00000000E+00  0.00000000E+00  0.00000000E+00
  0.00000000E+00  0.00000000E+00  0.00000000E+00
  0.00000000E+00  0.00000000E+00  0.00000000E+00
  0.00000000E+00  0.00000000E+00  0.00000000E+00
  0.00000000E+00  0.00000000E+00  0.00000000E+00
  0.00000000E+00  0.00000000E+00  0.00000000E+00
  0.00000000E+00  0.00000000E+00  0.00000000E+00
  0.00000000E+00  0.00000000E+00  0.00000000E+00
  0.00000000E+00  0.00000000E+00  0.00000000E+00
  0.00000000E+00  0.00000000E+00  0.00000000E+00
  0.00000000E+00  0.00000000E+00  0.00000000E+00
  0.00000000E+00  0.00000000E+00  0.00000000E+00
  0.00000000E+00  0.00000000E+00  0.00000000E+00
  0.00000000E+00  0.00000000E+00  0.00000000E+00
