Cs8 Pb8 Br23
1.0
8.456489 0.000000 8.040301
0.000000 11.729847 0.000000
-8.456489 0.000000 8.040301
Cs Pb Br
8 8 23
direct
0.259065 0.241321 0.199748 Cs
0.781100 0.246346 0.711358 Cs
0.727423 0.757763 0.265108 Cs
0.200369 0.750859 0.775497 Cs
0.284137 0.246937 0.731604 Cs
0.796934 0.249495 0.228615 Cs
0.735756 0.753404 0.801370 Cs
0.218565 0.753634 0.286861 Cs
-0.000301 0.000187 -0.000787 Pb
0.499313 0.006902 0.498973 Pb
0.499729 0.000536 0.000250 Pb
0.001077 0.000223 0.500952 Pb
0.501443 0.498392 -0.007925 Pb
0.000467 0.500139 0.500196 Pb
-0.000365 0.499493 0.000067 Pb
0.499578 0.493286 0.504142 Pb
0.471583 0.748406 0.961745 Br
0.970580 0.750064 0.469996 Br
0.970429 0.249874 0.971944 Br
0.451560 0.252029 0.463834 Br
0.024209 0.749513 0.030761 Br
0.525723 0.251926 0.046204 Br
0.032608 0.250418 0.531621 Br
0.248465 0.467997 0.952682 Br
0.745608 0.468666 0.447661 Br
0.948151 0.531696 0.747517 Br
0.550035 0.037017 0.751645 Br
0.046116 0.027672 0.252858 Br
0.751778 0.972291 0.047594 Br
0.255077 0.960287 0.549451 Br
0.247707 0.029332 0.949180 Br
0.747003 0.034371 0.450586 Br
0.452040 0.957939 0.250262 Br
0.949727 0.967402 0.747830 Br
0.749640 0.530496 0.052568 Br
0.256114 0.540447 0.550723 Br
0.554493 0.462932 0.749561 Br
0.054022 0.468885 0.252668 Br
0.497532 0.647677 0.385410 Br
