Cs8 Pb8 Br23                            
   1.0000000000000000     
     8.4564889999999995    0.0000000000000000    8.0403009999999995
     0.0000000000000000   11.7298469999999995    0.0000000000000000
    -8.4564889999999995    0.0000000000000000    8.0403009999999995
   Cs   Pb   Br
     8     8    23
Direct
  0.2723540000000000  0.2497609999999995  0.1916170000000008
  0.7711120000000022  0.2527120000000025  0.7470110000000005
  0.7062809999999971  0.7494900000000015  0.2522739999999999
  0.2103449999999967  0.7478049999999996  0.7840699999999998
  0.2789649999999995  0.2537340000000015  0.7399750000000012
  0.7996710000000036  0.2499520000000004  0.2187500000000000
  0.7255729999999971  0.7497680000000031  0.7877549999999971
  0.2368949999999970  0.7454800000000006  0.2853989999999982
  0.0034530000000004  0.9972369999999984  0.9996549999999971
  0.4915719999999979  0.0189939999999993  0.4973409999999987
  0.5021419999999992  0.0014049999999983  0.9968000000000004
  0.0181210000000007  0.9962099999999978  0.5018919999999980
  0.5023849999999968  0.4994590000000017  0.9972750000000019
  0.0031510000000026  0.4985980000000012  0.5004119999999972
  0.0029669999999982  0.5020900000000026  0.0004279999999994
  0.4917719999999974  0.4926490000000001  0.4983909999999980
  0.4781920000000000  0.7505949999999970  0.9717160000000007
  0.9653020000000012  0.7520009999999999  0.4544989999999984
  0.9881000000000029  0.2497600000000020  0.9742889999999989
  0.4205570000000023  0.2472420000000000  0.4714340000000021
  0.0314750000000004  0.7498310000000004  0.0388319999999993
  0.5509429999999966  0.7398859999999985  0.5157850000000010
  0.5358710000000002  0.2501609999999985  0.0274009999999976
  0.0146019999999965  0.2487640000000013  0.5461150000000004
  0.2505019999999973  0.4747989999999973  0.9514619999999994
  0.4569199999999967  0.5251900000000020  0.2461610000000007
  0.9486550000000022  0.5354889999999983  0.7466810000000024
  0.5493129999999979  0.0328889999999973  0.7469210000000004
  0.0534000000000034  0.0363869999999977  0.2563880000000012
  0.7557290000000023  0.9764520000000019  0.0476579999999984
  0.2608310000000031  0.9490559999999988  0.5499610000000033
  0.2507930000000016  0.0267410000000012  0.9470579999999984
  0.4570810000000023  0.9724349999999973  0.2479760000000013
  0.9519629999999992  0.9620529999999974  0.7478189999999998
  0.7555559999999986  0.5234730000000027  0.0478790000000018
  0.2432850000000002  0.5396280000000004  0.5529250000000019
  0.5454819999999998  0.4680000000000035  0.7483170000000001
  0.0526740000000032  0.4622379999999993  0.2541110000000018
  0.7182439999999986  0.2731970000000032  0.4592730000000032

  0.00000000E+00  0.00000000E+00  0.00000000E+00
  0.00000000E+00  0.00000000E+00  0.00000000E+00
  0.00000000E+00  0.00000000E+00  0.00000000E+00
  0.00000000E+00  0.00000000E+00  0.00000000E+00
  0.00000000E+00  0.00000000E+00  0.00000000E+00
  0.00000000E+00  0.00000000E+00  0.00000000E+00
  0.00000000E+00  0.00000000E+00  0.00000000E+00
  0.00000000E+00  0.00000000E+00  0.00000000E+00
  0.00000000E+00  0.00000000E+00  0.00000000E+00
  0.00000000E+00  0.00000000E+00  0.00000000E+00
  0.00000000E+00  0.00000000E+00  0.00000000E+00
  0.00000000E+00  0.00000000E+00  0.00000000E+00
  0.00000000E+00  0.00000000E+00  0.00000000E+00
  0.00000000E+00  0.00000000E+00  0.00000000E+00
  0.00000000E+00  0.00000000E+00  0.00000000E+00
  0.00000000E+00  0.00000000E+00  0.00000000E+00
  0.00000000E+00  0.00000000E+00  0.00000000E+00
  0.00000000E+00  0.00000000E+00  0.00000000E+00
  0.00000000E+00  0.00000000E+00  0.00000000E+00
  0.00000000E+00  0.00000000E+00  0.00000000E+00
  0.00000000E+00  0.00000000E+00  0.00000000E+00
  0.00000000E+00  0.00000000E+00  0.00000000E+00
  0.00000000E+00  0.00000000E+00  0.00000000E+00
  0.00000000E+00  0.00000000E+00  0.00000000E+00
  0.00000000E+00  0.00000000E+00  0.00000000E+00
  0.00000000E+00  0.00000000E+00  0.00000000E+00
  0.00000000E+00  0.00000000E+00  0.00000000E+00
  0.00000000E+00  0.00000000E+00  0.00000000E+00
  0.00000000E+00  0.00000000E+00  0.00000000E+00
  0.00000000E+00  0.00000000E+00  0.00000000E+00
  0.00000000E+00  0.00000000E+00  0.00000000E+00
  0.00000000E+00  0.00000000E+00  0.00000000E+00
  0.00000000E+00  0.00000000E+00  0.00000000E+00
  0.00000000E+00  0.00000000E+00  0.00000000E+00
  0.00000000E+00  0.00000000E+00  0.00000000E+00
  0.00000000E+00  0.00000000E+00  0.00000000E+00
  0.00000000E+00  0.00000000E+00  0.00000000E+00
  0.00000000E+00  0.00000000E+00  0.00000000E+00
  0.00000000E+00  0.00000000E+00  0.00000000E+00
