Cs64 Pb64 Br191
1.0
16.840035 0.000000 16.155961
0.000000 23.527616 0.000000
-16.840035 0.000000 16.155961
Cs Pb Br Cs Pb Br
56 56 168 8 8 23
direct
0.886006 0.875001 0.353688 Cs
0.135956 0.874981 0.603779 Cs
0.886181 0.375005 0.353500 Cs
0.135407 0.374743 0.603861 Cs
0.887930 0.876287 0.854021 Cs
0.135818 0.875134 0.103226 Cs
0.386370 0.874451 0.354654 Cs
0.637209 0.875371 0.603112 Cs
0.886384 0.375008 0.854056 Cs
0.135892 0.374823 0.103570 Cs
0.385588 0.875352 0.854376 Cs
0.635947 0.875139 0.103607 Cs
0.386303 0.373360 0.851484 Cs
0.637790 0.374345 0.103388 Cs
0.102776 0.124772 0.385688 Cs
0.353197 0.122729 0.636502 Cs
0.101772 0.625162 0.385533 Cs
0.103439 0.124875 0.886046 Cs
0.354054 0.124894 0.136155 Cs
0.603377 0.124634 0.385313 Cs
0.853991 0.124878 0.636209 Cs
0.103513 0.625072 0.886289 Cs
0.351525 0.625254 0.135077 Cs
0.853405 0.625584 0.636265 Cs
0.603721 0.125043 0.886420 Cs
0.853858 0.124929 0.136099 Cs
0.605137 0.625947 0.886100 Cs
0.853838 0.625088 0.136385 Cs
0.896619 0.875071 0.114032 Cs
0.146122 0.875088 0.363599 Cs
0.896570 0.374868 0.114099 Cs
0.146622 0.374453 0.364203 Cs
0.896298 0.875019 0.613927 Cs
0.146611 0.875032 0.864123 Cs
0.396108 0.874885 0.114308 Cs
0.646555 0.874243 0.364525 Cs
0.896898 0.374795 0.613946 Cs
0.147089 0.374821 0.863363 Cs
0.394010 0.374475 0.113551 Cs
0.396685 0.874723 0.614254 Cs
0.646977 0.876530 0.865052 Cs
0.645244 0.374795 0.863688 Cs
0.113854 0.124949 0.146348 Cs
0.364146 0.124005 0.396067 Cs
0.114187 0.625042 0.146730 Cs
0.114100 0.125042 0.646387 Cs
0.363973 0.125157 0.896448 Cs
0.613926 0.124928 0.146650 Cs
0.864115 0.124836 0.396193 Cs
0.114047 0.625066 0.645782 Cs
0.364163 0.625367 0.896555 Cs
0.614713 0.625891 0.144732 Cs
0.864044 0.625177 0.396521 Cs
0.614110 0.124596 0.646046 Cs
0.864236 0.125008 0.896703 Cs
0.863769 0.625155 0.895664 Cs
0.750228 0.750320 0.249888 Pb
0.000006 0.750087 0.500070 Pb
0.750221 0.249590 0.249897 Pb
0.999922 0.249551 0.499923 Pb
0.751413 0.752991 0.752364 Pb
0.000040 0.749913 0.000119 Pb
0.249563 0.750729 0.249654 Pb
0.500342 0.744242 0.502895 Pb
0.750350 0.249979 0.750320 Pb
0.000051 0.250059 0.000018 Pb
0.250107 0.749715 0.749922 Pb
0.500007 0.750571 0.000094 Pb
0.249489 0.248961 0.750582 Pb
0.500046 0.250143 0.000258 Pb
0.000067 0.750185 0.249968 Pb
0.249524 0.749815 0.500259 Pb
0.000024 0.249974 0.249968 Pb
0.000408 0.750161 0.750206 Pb
0.249924 0.750339 0.999901 Pb
0.500118 0.749098 0.250431 Pb
0.750585 0.750619 0.500088 Pb
0.999858 0.250008 0.750047 Pb
0.249775 0.249626 0.000022 Pb
0.750270 0.249239 0.499776 Pb
0.500144 0.752705 0.751227 Pb
0.750266 0.750321 0.000372 Pb
0.500526 0.249383 0.750043 Pb
0.750199 0.249868 0.000037 Pb
0.999994 0.000036 0.249976 Pb
0.249883 0.998958 0.499923 Pb
0.000074 0.499866 0.249966 Pb
0.000096 0.000070 0.749959 Pb
0.249936 0.000089 0.000044 Pb
0.500022 0.999470 0.250022 Pb
0.750245 0.000331 0.499876 Pb
0.000037 0.500193 0.750004 Pb
0.249580 0.499891 0.999701 Pb
0.750128 0.499331 0.500379 Pb
0.500039 0.000538 0.750193 Pb
0.750182 0.000232 0.000173 Pb
0.498571 0.502342 0.753049 Pb
0.750355 0.499989 1.000102 Pb
0.750079 0.999870 0.249976 Pb
0.000034 0.999812 0.499995 Pb
0.750327 0.499968 0.249739 Pb
0.999489 0.499831 0.499900 Pb
0.750245 0.000726 0.750242 Pb
0.000116 0.000150 0.000124 Pb
0.249931 0.000086 0.249939 Pb
0.500185 0.997431 0.500093 Pb
0.750497 0.499514 0.749920 Pb
0.000006 0.500133 0.000097 Pb
0.249806 0.999435 0.750047 Pb
0.499978 0.000301 0.000132 Pb
0.249909 0.500434 0.750061 Pb
0.500236 0.499465 0.001750 Pb
0.984420 0.125088 0.230823 Br
0.233452 0.123417 0.479355 Br
0.984652 0.624937 0.231013 Br
0.231538 0.624591 0.480728 Br
0.984589 0.125155 0.730595 Br
0.234208 0.124989 0.980163 Br
0.484683 0.125377 0.232116 Br
0.733564 0.125023 0.479646 Br
0.984336 0.625028 0.730298 Br
0.234928 0.624906 0.980441 Br
0.483970 0.624324 0.225556 Br
0.484586 0.125983 0.729893 Br
0.734371 0.125228 0.980414 Br
0.734618 0.625075 0.980704 Br
0.230177 0.875248 0.233750 Br
0.483598 0.865311 0.486070 Br
0.230893 0.374720 0.234372 Br
0.230794 0.874267 0.734298 Br
0.480866 0.875082 0.984854 Br
0.730170 0.874879 0.234486 Br
0.980445 0.874774 0.484367 Br
0.234048 0.374624 0.732665 Br
0.479425 0.375598 0.983723 Br
0.731838 0.374951 0.233735 Br
0.980589 0.374738 0.484381 Br
0.730140 0.876487 0.734882 Br
0.981281 0.874991 0.984823 Br
0.980747 0.375182 0.984569 Br
0.769416 0.124900 0.265698 Br
0.019429 0.124745 0.515939 Br
0.768479 0.624879 0.266238 Br
0.018588 0.624667 0.515843 Br
0.769961 0.125947 0.765947 Br
0.019369 0.125167 0.015701 Br
0.270041 0.124902 0.265730 Br
0.518583 0.120048 0.514834 Br
0.765817 0.626051 0.764437 Br
0.019755 0.624924 0.016023 Br
0.268679 0.124335 0.766150 Br
0.519217 0.125543 0.016045 Br
0.272103 0.624340 0.764604 Br
0.519400 0.624362 0.013853 Br
0.015464 0.875052 0.269289 Br
0.266619 0.874013 0.520237 Br
0.015821 0.375034 0.269599 Br
0.016660 0.875031 0.769176 Br
0.265891 0.875006 0.019253 Br
0.515416 0.874038 0.270413 Br
0.766174 0.875342 0.517727 Br
0.015869 0.375294 0.769281 Br
0.265063 0.374978 0.018674 Br
0.766144 0.374455 0.519447 Br
0.515937 0.876566 0.771420 Br
0.765624 0.875177 0.019754 Br
0.516398 0.377207 0.762109 Br
0.766412 0.375177 0.019031 Br
0.873868 0.982022 0.224575 Br
0.123929 0.981639 0.474579 Br
0.873825 0.482223 0.224494 Br
0.122098 0.482020 0.473887 Br
0.873884 0.982073 0.724517 Br
0.123960 0.982106 0.974519 Br
0.374034 0.981933 0.224710 Br
0.623696 0.981701 0.474440 Br
0.873686 0.482439 0.724158 Br
0.124117 0.482000 0.974074 Br
0.374633 0.481866 0.225493 Br
0.374092 0.981976 0.724570 Br
0.623817 0.982593 0.975016 Br
0.623530 0.481918 0.974807 Br
0.974553 0.017861 0.373962 Br
0.224532 0.017885 0.623853 Br
0.974085 0.517896 0.373974 Br
0.224827 0.517281 0.623706 Br
0.974646 0.018016 0.873877 Br
0.224643 0.018114 0.123955 Br
0.474057 0.015738 0.374309 Br
0.724665 0.018030 0.623866 Br
0.974524 0.518066 0.873793 Br
0.224667 0.517475 0.123469 Br
0.474587 0.018266 0.873819 Br
0.724522 0.018073 0.123924 Br
0.475597 0.514911 0.869006 Br
0.724495 0.517850 0.123914 Br
0.025586 0.767877 0.126148 Br
0.275327 0.768023 0.376101 Br
0.025468 0.267926 0.126123 Br
0.025424 0.767952 0.626138 Br
0.275611 0.767685 0.875998 Br
0.525066 0.768056 0.126981 Br
0.775373 0.767620 0.375888 Br
0.025419 0.267809 0.626105 Br
0.275477 0.268046 0.875943 Br
0.525403 0.269154 0.126412 Br
0.775681 0.267942 0.376147 Br
0.527745 0.767687 0.627247 Br
0.778040 0.769029 0.876864 Br
0.775355 0.268289 0.876003 Br
0.126237 0.231979 0.275529 Br
0.375895 0.228982 0.525359 Br
0.126044 0.732344 0.275680 Br
0.125913 0.232208 0.775621 Br
0.376162 0.232112 0.025524 Br
0.626079 0.232399 0.275574 Br
0.875828 0.231806 0.525548 Br
0.126445 0.731583 0.775352 Br
0.376256 0.732113 0.025343 Br
0.876480 0.732127 0.525554 Br
0.626119 0.232032 0.775596 Br
0.876048 0.232032 0.025480 Br
0.626580 0.737102 0.780033 Br
0.876120 0.731934 0.025688 Br
0.873805 0.767950 0.224550 Br
0.124437 0.768160 0.474633 Br
0.873925 0.267829 0.224556 Br
0.123758 0.266815 0.474320 Br
0.874260 0.768463 0.725282 Br
0.123995 0.767850 0.974415 Br
0.374036 0.767657 0.225709 Br
0.624072 0.764063 0.474877 Br
0.873756 0.268282 0.724498 Br
0.123951 0.268048 0.974325 Br
0.374089 0.268180 0.224760 Br
0.374414 0.768051 0.724554 Br
0.623958 0.767964 0.974494 Br
0.623830 0.268239 0.974622 Br
0.974426 0.232050 0.373951 Br
0.225731 0.232410 0.623730 Br
0.974471 0.732119 0.373988 Br
0.224808 0.731893 0.623850 Br
0.974470 0.232160 0.873865 Br
0.224628 0.231949 0.123777 Br
0.474096 0.232431 0.374167 Br
0.724295 0.232102 0.623843 Br
0.974676 0.731971 0.873911 Br
0.224400 0.732388 0.123803 Br
0.474938 0.232591 0.874040 Br
0.724451 0.232009 0.123887 Br
0.473905 0.733028 0.874440 Br
0.724794 0.732239 0.123727 Br
0.126192 0.017974 0.275458 Br
0.376328 0.016421 0.525430 Br
0.126283 0.517606 0.275681 Br
0.126174 0.017906 0.775398 Br
0.376140 0.018007 0.025451 Br
0.626019 0.017629 0.275488 Br
0.875933 0.018073 0.525451 Br
0.126825 0.517918 0.775030 Br
0.376606 0.518052 0.024861 Br
0.874213 0.517553 0.526339 Br
0.626080 0.018444 0.775461 Br
0.876099 0.017977 0.025519 Br
0.625161 0.517742 0.774746 Br
0.876023 0.518109 0.025367 Br
0.025511 0.982190 0.126122 Br
0.275670 0.981514 0.376171 Br
0.025507 0.482072 0.126116 Br
0.025439 0.982043 0.626103 Br
0.275363 0.982123 0.876063 Br
0.525362 0.982117 0.126224 Br
0.775433 0.982095 0.376111 Br
0.025368 0.482086 0.626085 Br
0.276892 0.481821 0.875557 Br
0.525232 0.481237 0.125127 Br
0.774979 0.482325 0.376438 Br
0.525769 0.981392 0.626158 Br
0.775683 0.982181 0.876081 Br
0.775143 0.482086 0.875846 Br
0.385093 0.373303 0.354634 Cs
0.638278 0.370771 0.602982 Cs
0.610271 0.625407 0.386864 Cs
0.358137 0.623560 0.635741 Cs
0.380657 0.367060 0.613907 Cs
0.649296 0.374314 0.363734 Cs
0.624686 0.633344 0.659619 Cs
0.357041 0.627370 0.393179 Cs
0.249871 0.249416 0.249943 Pb
0.499761 0.247700 0.500188 Pb
0.500094 0.250479 0.250038 Pb
0.249104 0.247441 0.499275 Pb
0.500318 0.500495 0.247820 Pb
0.247886 0.500183 0.499460 Pb
0.249509 0.499456 0.249833 Pb
0.496750 0.499442 0.492279 Pb
0.487009 0.626325 0.735564 Br
0.736290 0.624579 0.484245 Br
0.729349 0.375588 0.734161 Br
0.477367 0.371592 0.492667 Br
0.266367 0.624996 0.263182 Br
0.515506 0.376384 0.273172 Br
0.260100 0.373831 0.513519 Br
0.375518 0.481860 0.721265 Br
0.621366 0.479680 0.475361 Br
0.476630 0.529648 0.374965 Br
0.720282 0.515988 0.624020 Br
0.525108 0.267027 0.626080 Br
0.275697 0.266767 0.375982 Br
0.626077 0.731661 0.275097 Br
0.376536 0.729128 0.524750 Br
0.373968 0.264427 0.727156 Br
0.623427 0.268058 0.474768 Br
0.477710 0.724606 0.376144 Br
0.728502 0.738572 0.624768 Br
0.625685 0.518207 0.274502 Br
0.374437 0.513259 0.524476 Br
0.275917 0.482657 0.375734 Br
0.514158 0.605569 0.551670 Br
