Cs64 Pb64 Br191
1.0
16.840035 0.000000 16.155961
0.000000 23.527616 0.000000
-16.840035 0.000000 16.155961
Cs Pb Br Cs Pb Br
56 56 168 8 8 23
direct
0.885450 0.874498 0.353610 Cs
0.135999 0.875077 0.603743 Cs
0.886291 0.374996 0.353828 Cs
0.135995 0.374746 0.603565 Cs
0.886329 0.875152 0.853664 Cs
0.135661 0.875049 0.102949 Cs
0.385945 0.877848 0.354183 Cs
0.633590 0.872743 0.603274 Cs
0.886130 0.374755 0.853594 Cs
0.136177 0.374735 0.104154 Cs
0.386256 0.875000 0.852810 Cs
0.635888 0.875071 0.103908 Cs
0.385765 0.374092 0.853356 Cs
0.637307 0.374694 0.102736 Cs
0.103681 0.124895 0.386006 Cs
0.353311 0.124559 0.635780 Cs
0.102856 0.625144 0.386147 Cs
0.103352 0.124868 0.885914 Cs
0.353649 0.124665 0.135526 Cs
0.603183 0.124766 0.385791 Cs
0.853841 0.124746 0.636322 Cs
0.103706 0.625072 0.885941 Cs
0.353603 0.625409 0.135726 Cs
0.853316 0.624864 0.635119 Cs
0.603699 0.125009 0.885970 Cs
0.853715 0.124848 0.135786 Cs
0.605090 0.625996 0.887562 Cs
0.853082 0.625212 0.137037 Cs
0.896693 0.875126 0.113908 Cs
0.145852 0.875146 0.363731 Cs
0.896683 0.374795 0.113764 Cs
0.146125 0.374521 0.364137 Cs
0.896771 0.875227 0.614094 Cs
0.146160 0.875096 0.863857 Cs
0.396525 0.875801 0.113120 Cs
0.645562 0.875477 0.363363 Cs
0.897683 0.374603 0.614351 Cs
0.146259 0.374771 0.863814 Cs
0.392821 0.374790 0.113753 Cs
0.397369 0.873997 0.614190 Cs
0.645814 0.875173 0.863802 Cs
0.646707 0.374663 0.864189 Cs
0.113424 0.124583 0.145987 Cs
0.363019 0.123083 0.396831 Cs
0.114136 0.624844 0.146302 Cs
0.113877 0.124798 0.646365 Cs
0.364016 0.124943 0.896440 Cs
0.614210 0.125034 0.145992 Cs
0.864283 0.124807 0.396440 Cs
0.113590 0.624983 0.646159 Cs
0.362679 0.625868 0.896486 Cs
0.613927 0.627487 0.146464 Cs
0.864918 0.624915 0.396784 Cs
0.613935 0.124873 0.646050 Cs
0.864135 0.124825 0.896487 Cs
0.863757 0.625104 0.895745 Cs
0.750384 0.751383 0.249013 Pb
0.000173 0.750356 0.500079 Pb
0.750290 0.249615 0.249860 Pb
0.000036 0.249544 0.500019 Pb
0.750247 0.750842 0.750152 Pb
-0.000002 0.749755 0.999985 Pb
0.249505 0.750698 0.249562 Pb
0.499638 0.746021 0.494830 Pb
0.750253 0.249349 0.750214 Pb
-0.000001 0.249865 0.999914 Pb
0.249738 0.750287 0.750105 Pb
0.499726 0.750410 0.999550 Pb
0.249866 0.249520 0.750158 Pb
0.499938 0.250235 0.000140 Pb
0.000275 0.750018 0.249946 Pb
0.249900 0.750254 0.500118 Pb
0.999800 0.249636 0.249850 Pb
-0.000010 0.749817 0.749998 Pb
0.249796 0.750341 0.999958 Pb
0.497891 0.751351 0.249106 Pb
0.750830 0.751229 0.501087 Pb
0.999972 0.249705 0.750012 Pb
0.249731 0.249539 0.999642 Pb
0.750216 0.248939 0.500043 Pb
0.500066 0.749480 0.749290 Pb
0.750306 0.750439 0.999856 Pb
0.499900 0.249881 0.749803 Pb
0.750175 0.249642 0.999910 Pb
0.999934 0.999921 0.249974 Pb
0.249812 0.999324 0.500260 Pb
0.000148 0.499725 0.249966 Pb
0.000017 0.999814 0.749993 Pb
0.249864 0.999840 0.999802 Pb
0.499887 0.000612 0.249615 Pb
0.750019 0.000257 0.500130 Pb
0.000010 0.499949 0.750050 Pb
0.249578 0.499999 0.999697 Pb
0.750645 0.497456 0.500741 Pb
0.499938 0.000244 0.749915 Pb
0.750049 0.999939 0.999937 Pb
0.499768 0.500438 0.752196 Pb
0.750556 0.500028 0.000078 Pb
0.750203 0.000549 0.250005 Pb
0.999983 0.999858 0.499957 Pb
0.750525 0.499302 0.249289 Pb
0.000091 0.499551 0.500087 Pb
0.749958 0.999772 0.749901 Pb
0.999943 0.999802 0.999909 Pb
0.249665 0.999647 0.249615 Pb
0.500209 0.999285 0.500212 Pb
0.750397 0.499480 0.750249 Pb
0.999990 0.499954 0.999929 Pb
0.249969 0.999901 0.750031 Pb
0.500018 0.000249 0.999904 Pb
0.249702 0.499697 0.750171 Pb
0.499621 0.500322 0.998601 Pb
0.984029 0.124868 0.230393 Br
0.233706 0.124027 0.481859 Br
0.984469 0.624662 0.230862 Br
0.233351 0.624673 0.480851 Br
0.984427 0.124825 0.730649 Br
0.234186 0.124833 0.980159 Br
0.484824 0.126495 0.229791 Br
0.733620 0.124693 0.479506 Br
0.983938 0.624745 0.730139 Br
0.233968 0.624908 0.981351 Br
0.484289 0.624085 0.233357 Br
0.484236 0.125418 0.729731 Br
0.734178 0.125009 0.980449 Br
0.734893 0.624955 0.981316 Br
0.229503 0.874713 0.233573 Br
0.484653 0.869824 0.487060 Br
0.233100 0.374339 0.235904 Br
0.230530 0.874804 0.734305 Br
0.480745 0.875077 0.983449 Br
0.731585 0.875694 0.234226 Br
0.980317 0.874865 0.483848 Br
0.231158 0.374810 0.734055 Br
0.479436 0.375885 0.985122 Br
0.730924 0.375340 0.233291 Br
0.981297 0.374699 0.484051 Br
0.729262 0.874970 0.733666 Br
0.980792 0.874699 0.984277 Br
0.980662 0.374978 0.984187 Br
0.769845 0.125561 0.265879 Br
0.019568 0.124738 0.515594 Br
0.764337 0.625371 0.268471 Br
0.017992 0.624764 0.515613 Br
0.769594 0.124703 0.765918 Br
0.019022 0.124880 0.015418 Br
0.269971 0.124135 0.265238 Br
0.517883 0.123472 0.515215 Br
0.767743 0.624900 0.764210 Br
0.019799 0.624730 0.015706 Br
0.269803 0.124810 0.765727 Br
0.519189 0.125663 0.015752 Br
0.267609 0.624723 0.766873 Br
0.519327 0.624486 0.016307 Br
0.015118 0.874781 0.269496 Br
0.266691 0.874216 0.520527 Br
0.015633 0.374823 0.269446 Br
0.015588 0.874715 0.769070 Br
0.265682 0.874922 0.019463 Br
0.514925 0.875868 0.266721 Br
0.764958 0.875188 0.520388 Br
0.015484 0.374926 0.769057 Br
0.264719 0.374899 0.018500 Br
0.767162 0.373711 0.519937 Br
0.515828 0.874536 0.766283 Br
0.765717 0.874988 0.019939 Br
0.516190 0.375693 0.768454 Br
0.766130 0.375053 0.019034 Br
0.873821 0.982104 0.224540 Br
0.123927 0.981739 0.474596 Br
0.873816 0.482371 0.224352 Br
0.124613 0.482171 0.474297 Br
0.873798 0.981956 0.724547 Br
0.123930 0.982047 0.974430 Br
0.373916 0.982241 0.224365 Br
0.623721 0.982049 0.474494 Br
0.873594 0.482127 0.724487 Br
0.123961 0.481989 0.974522 Br
0.375603 0.481774 0.228403 Br
0.373981 0.981891 0.724214 Br
0.623822 0.982069 0.974559 Br
0.623387 0.481837 0.975181 Br
0.974560 0.017847 0.373865 Br
0.224457 0.017826 0.623966 Br
0.974498 0.517718 0.373871 Br
0.224513 0.517635 0.623726 Br
0.974527 0.017815 0.873852 Br
0.224474 0.017999 0.123859 Br
0.474618 0.017352 0.373914 Br
0.724375 0.018080 0.623800 Br
0.974506 0.517995 0.873877 Br
0.225343 0.517195 0.124192 Br
0.474614 0.017918 0.873699 Br
0.724525 0.018045 0.123940 Br
0.474590 0.518073 0.875293 Br
0.723511 0.518625 0.124160 Br
0.025527 0.767825 0.126128 Br
0.274973 0.769276 0.375994 Br
0.025406 0.267946 0.126074 Br
0.025562 0.767946 0.626027 Br
0.275566 0.768047 0.876040 Br
0.524633 0.768005 0.124890 Br
0.773141 0.765621 0.376221 Br
0.025483 0.267818 0.626016 Br
0.275498 0.267843 0.876147 Br
0.524716 0.271079 0.126476 Br
0.775802 0.267873 0.376070 Br
0.526114 0.759006 0.623372 Br
0.775605 0.768074 0.876143 Br
0.775402 0.267826 0.876082 Br
0.125961 0.231805 0.275045 Br
0.376019 0.231844 0.525250 Br
0.126194 0.731961 0.275577 Br
0.126172 0.232013 0.775486 Br
0.376109 0.232213 0.025444 Br
0.625951 0.232158 0.275424 Br
0.875848 0.231658 0.525492 Br
0.126024 0.732098 0.775398 Br
0.376096 0.731967 0.025142 Br
0.876277 0.733588 0.525793 Br
0.625935 0.232059 0.775105 Br
0.875972 0.232034 0.025462 Br
0.626016 0.732061 0.776023 Br
0.876050 0.731773 0.025663 Br
0.874054 0.767664 0.224320 Br
0.124235 0.768009 0.474534 Br
0.873755 0.268050 0.224452 Br
0.123776 0.267676 0.474668 Br
0.873716 0.767933 0.724376 Br
0.123896 0.767934 0.974328 Br
0.373213 0.767924 0.221583 Br
0.623976 0.763867 0.471318 Br
0.873843 0.267772 0.724506 Br
0.123888 0.267887 0.974456 Br
0.373801 0.266330 0.223313 Br
0.373914 0.767505 0.724411 Br
0.623899 0.767918 0.974657 Br
0.623752 0.268148 0.974730 Br
0.974556 0.232007 0.373835 Br
0.224425 0.232044 0.624189 Br
0.974412 0.732117 0.373889 Br
0.224361 0.731940 0.623829 Br
0.974457 0.232048 0.873850 Br
0.223998 0.231777 0.123677 Br
0.473463 0.229738 0.373606 Br
0.724432 0.231889 0.623807 Br
0.974483 0.731926 0.873845 Br
0.224139 0.732192 0.123845 Br
0.474679 0.232451 0.873794 Br
0.724433 0.232130 0.123932 Br
0.474900 0.731488 0.873039 Br
0.724862 0.732055 0.123873 Br
0.126095 0.018031 0.275357 Br
0.376275 0.016799 0.525435 Br
0.126561 0.517138 0.276314 Br
0.126143 0.017895 0.775400 Br
0.376172 0.017903 0.025246 Br
0.625977 0.017932 0.275358 Br
0.875964 0.018009 0.525406 Br
0.126221 0.517675 0.775408 Br
0.376444 0.517983 0.025363 Br
0.876042 0.515399 0.525850 Br
0.625940 0.018088 0.775385 Br
0.876035 0.017861 0.025379 Br
0.625650 0.518007 0.776961 Br
0.875860 0.518217 0.025849 Br
0.025402 0.982025 0.126085 Br
0.274652 0.982322 0.376150 Br
0.025620 0.481951 0.126179 Br
0.025424 0.981996 0.626016 Br
0.275621 0.981877 0.876092 Br
0.525527 0.982458 0.125951 Br
0.775303 0.981823 0.376092 Br
0.025627 0.481979 0.626029 Br
0.275796 0.481981 0.876022 Br
0.523700 0.481495 0.131245 Br
0.774809 0.482932 0.376177 Br
0.525650 0.982258 0.625870 Br
0.775324 0.981816 0.876057 Br
0.775599 0.482179 0.876377 Br
0.378248 0.366704 0.349679 Cs
0.638447 0.373721 0.605241 Cs
0.632736 0.630753 0.379707 Cs
0.350375 0.625320 0.637618 Cs
0.392968 0.373851 0.613271 Cs
0.649833 0.372247 0.364130 Cs
0.617569 0.625586 0.651040 Cs
0.360128 0.630217 0.394690 Cs
0.249270 0.248133 0.249167 Pb
0.499512 0.249785 0.499383 Pb
0.500121 0.250163 0.250077 Pb
0.249418 0.248866 0.500460 Pb
0.501758 0.498889 0.247074 Pb
0.249879 0.500131 0.499951 Pb
0.249626 0.500069 0.250225 Pb
0.500544 0.496551 0.504543 Pb
0.483575 0.624060 0.730229 Br
0.742111 0.624156 0.490594 Br
0.731181 0.374663 0.735380 Br
0.474913 0.374143 0.478911 Br
0.268049 0.624862 0.263997 Br
0.513991 0.376580 0.277648 Br
0.264647 0.374524 0.516663 Br
0.374650 0.481910 0.724764 Br
0.623018 0.479610 0.473845 Br
0.723398 0.515179 0.624119 Br
0.523928 0.270659 0.625144 Br
0.271800 0.263278 0.376031 Br
0.625329 0.737491 0.270888 Br
0.376680 0.729602 0.524918 Br
0.373963 0.267934 0.724603 Br
0.623477 0.268083 0.475049 Br
0.466547 0.742673 0.370900 Br
0.723713 0.733620 0.624137 Br
0.625888 0.516010 0.276080 Br
0.377221 0.518150 0.527509 Br
0.528985 0.488390 0.624235 Br
0.279879 0.484262 0.376298 Br
0.508150 0.613633 0.464604 Br
