Cs64 Pb64 Br191
1.0
16.840035 0.000000 16.155961
0.000000 23.527616 0.000000
-16.840035 0.000000 16.155961
Cs Pb Br Cs Pb Br
56 56 168 8 8 23
direct
0.885927 0.875146 0.353431 Cs
0.136030 0.875089 0.603643 Cs
0.886287 0.374566 0.351815 Cs
0.136096 0.374270 0.605444 Cs
0.886337 0.875162 0.853845 Cs
0.135965 0.875057 0.103356 Cs
0.385771 0.875275 0.353776 Cs
0.635893 0.875280 0.603447 Cs
0.885779 0.374906 0.853226 Cs
0.136287 0.374782 0.103643 Cs
0.385980 0.875139 0.853724 Cs
0.635975 0.874894 0.103807 Cs
0.386323 0.374606 0.853902 Cs
0.635553 0.375337 0.103407 Cs
0.103632 0.124870 0.385964 Cs
0.353611 0.124701 0.636103 Cs
0.101366 0.625952 0.385480 Cs
0.103586 0.124886 0.886157 Cs
0.353426 0.124815 0.135741 Cs
0.603333 0.124790 0.385775 Cs
0.853938 0.124629 0.636204 Cs
0.103690 0.625055 0.885974 Cs
0.356512 0.624885 0.137109 Cs
0.853655 0.627284 0.638125 Cs
0.603614 0.125001 0.886000 Cs
0.853731 0.124899 0.135932 Cs
0.603996 0.625372 0.886848 Cs
0.854286 0.625379 0.135844 Cs
0.896496 0.875277 0.113827 Cs
0.146421 0.875098 0.363884 Cs
0.896549 0.374406 0.112828 Cs
0.146913 0.374082 0.363176 Cs
0.896760 0.875171 0.614179 Cs
0.146383 0.875118 0.864120 Cs
0.396195 0.875227 0.113717 Cs
0.646628 0.876275 0.362912 Cs
0.896190 0.373447 0.614659 Cs
0.146272 0.374854 0.863896 Cs
0.395294 0.376378 0.115566 Cs
0.396454 0.875017 0.614244 Cs
0.646294 0.875127 0.864230 Cs
0.646616 0.374916 0.864667 Cs
0.113805 0.124799 0.146150 Cs
0.363774 0.124562 0.396502 Cs
0.114339 0.624741 0.146255 Cs
0.114066 0.124842 0.646325 Cs
0.363961 0.124881 0.896567 Cs
0.613994 0.124834 0.146150 Cs
0.864177 0.124892 0.396430 Cs
0.113673 0.625281 0.646676 Cs
0.363831 0.625176 0.896820 Cs
0.613566 0.626157 0.145581 Cs
0.863962 0.626573 0.394658 Cs
0.613633 0.124260 0.646377 Cs
0.864293 0.124799 0.897043 Cs
0.864041 0.625211 0.896563 Cs
0.751025 0.751049 0.249172 Pb
0.000034 0.750305 0.500095 Pb
0.750122 0.249965 0.249724 Pb
-0.000002 0.249651 0.499931 Pb
0.750035 0.750747 0.750266 Pb
0.000087 0.750017 0.999989 Pb
0.249679 0.750205 0.249697 Pb
0.500216 0.749757 0.500296 Pb
0.750764 0.248417 0.750913 Pb
0.000072 0.249965 0.999957 Pb
0.249844 0.750386 0.750277 Pb
0.499800 0.750343 0.999793 Pb
0.249841 0.249442 0.750391 Pb
0.499924 0.249955 0.000260 Pb
0.000286 0.750299 0.249825 Pb
0.250015 0.749882 0.499944 Pb
0.000036 0.249722 0.249827 Pb
0.000169 0.750326 0.750228 Pb
0.249959 0.750007 0.000063 Pb
0.499300 0.750812 0.249606 Pb
0.750134 0.750786 0.500180 Pb
0.000060 0.249616 0.750175 Pb
0.250036 0.249929 0.999958 Pb
0.749854 0.249497 0.499827 Pb
0.499886 0.750012 0.750240 Pb
0.750127 0.750347 0.999990 Pb
0.499829 0.249066 0.750652 Pb
0.750012 0.249707 0.000102 Pb
0.000042 0.999996 0.249948 Pb
0.249999 0.999660 0.500058 Pb
0.001003 0.499749 0.249849 Pb
0.000064 0.000029 0.750091 Pb
0.249977 0.999978 0.999978 Pb
0.499851 0.999827 0.249822 Pb
0.750037 0.000093 0.500010 Pb
0.999899 0.500107 0.750183 Pb
0.249945 0.500133 0.000040 Pb
0.754533 0.500395 0.500797 Pb
0.500003 0.999639 0.750154 Pb
0.750005 0.000014 0.000016 Pb
0.500174 0.499907 0.751272 Pb
0.750272 0.500129 0.999902 Pb
0.750162 0.000532 0.249909 Pb
0.000029 0.999870 0.499973 Pb
0.752634 0.500177 0.248053 Pb
0.000673 0.499235 0.499543 Pb
0.750064 0.999596 0.750118 Pb
0.000037 0.999963 0.000013 Pb
0.249896 0.999882 0.249851 Pb
0.499943 0.999769 0.499960 Pb
0.750197 0.500597 0.750302 Pb
0.000081 0.499919 0.999963 Pb
0.249971 0.999885 0.750083 Pb
0.500011 0.000126 0.000002 Pb
0.250085 0.499935 0.750609 Pb
0.500025 0.499984 0.000527 Pb
0.984271 0.125028 0.230539 Br
0.234167 0.124892 0.481206 Br
0.984749 0.624861 0.231383 Br
0.233586 0.624483 0.477826 Br
0.984519 0.124983 0.730376 Br
0.234330 0.125045 0.980558 Br
0.484108 0.124424 0.230098 Br
0.733723 0.125537 0.480133 Br
0.984592 0.625069 0.730758 Br
0.234058 0.624946 0.980512 Br
0.485517 0.623892 0.237347 Br
0.484295 0.124470 0.730924 Br
0.734116 0.125046 0.980515 Br
0.734520 0.625077 0.981041 Br
0.230365 0.874771 0.234156 Br
0.480434 0.873905 0.484772 Br
0.231891 0.374771 0.234225 Br
0.230374 0.874854 0.734166 Br
0.480600 0.875035 0.984232 Br
0.732036 0.875873 0.233715 Br
0.980416 0.874566 0.484203 Br
0.231861 0.374978 0.734308 Br
0.479922 0.375335 0.985641 Br
0.730395 0.375799 0.233687 Br
0.978760 0.375254 0.483971 Br
0.729798 0.874882 0.733983 Br
0.980835 0.874911 0.984391 Br
0.980645 0.375067 0.983671 Br
0.769831 0.125863 0.265998 Br
0.019126 0.125059 0.515575 Br
0.769127 0.625700 0.265718 Br
0.017777 0.623980 0.516105 Br
0.770373 0.124326 0.766478 Br
0.019131 0.125050 0.015571 Br
0.269759 0.124703 0.265672 Br
0.519192 0.125177 0.515190 Br
0.768477 0.625188 0.765943 Br
0.019460 0.624845 0.015638 Br
0.269574 0.124830 0.765767 Br
0.519445 0.125165 0.015648 Br
0.268008 0.624905 0.767085 Br
0.518784 0.624957 0.015740 Br
0.015762 0.875007 0.269686 Br
0.266147 0.874263 0.519536 Br
0.016549 0.374878 0.269496 Br
0.015815 0.875012 0.769369 Br
0.265666 0.874940 0.019344 Br
0.515011 0.874781 0.269772 Br
0.766110 0.874808 0.519594 Br
0.015344 0.375120 0.768746 Br
0.265711 0.375127 0.019233 Br
0.761154 0.376010 0.522467 Br
0.515683 0.874326 0.769391 Br
0.765647 0.875081 0.019681 Br
0.516504 0.374586 0.768512 Br
0.765290 0.375125 0.018984 Br
0.873934 0.982200 0.224571 Br
0.123912 0.981950 0.474575 Br
0.876319 0.481453 0.222937 Br
0.122252 0.481778 0.474512 Br
0.873869 0.981910 0.724546 Br
0.123918 0.982098 0.974555 Br
0.373914 0.981941 0.224543 Br
0.623900 0.982087 0.474541 Br
0.873617 0.483503 0.722907 Br
0.123956 0.482008 0.974638 Br
0.376745 0.482294 0.232958 Br
0.373947 0.981953 0.724525 Br
0.623899 0.982076 0.974620 Br
0.623808 0.482091 0.975108 Br
0.974557 0.017918 0.373989 Br
0.224588 0.017836 0.623859 Br
0.973791 0.517850 0.374240 Br
0.224750 0.518305 0.623353 Br
0.974586 0.017896 0.873853 Br
0.224533 0.017946 0.123955 Br
0.474553 0.017852 0.374005 Br
0.724624 0.018007 0.623803 Br
0.974474 0.517895 0.873614 Br
0.226685 0.517755 0.124284 Br
0.474577 0.017901 0.873868 Br
0.724575 0.018090 0.123964 Br
0.475121 0.517670 0.875486 Br
0.725118 0.518451 0.123756 Br
0.025588 0.767845 0.126172 Br
0.275876 0.767610 0.376184 Br
0.025500 0.268005 0.126114 Br
0.025471 0.767907 0.626001 Br
0.275535 0.768035 0.876007 Br
0.524749 0.767685 0.125973 Br
0.774845 0.767711 0.376166 Br
0.025281 0.267913 0.625962 Br
0.275495 0.267995 0.876115 Br
0.525530 0.267982 0.126257 Br
0.774929 0.268975 0.376446 Br
0.525584 0.767807 0.626051 Br
0.775591 0.768131 0.875937 Br
0.775711 0.267431 0.876260 Br
0.126078 0.231960 0.275420 Br
0.375870 0.231997 0.525317 Br
0.126285 0.732026 0.275559 Br
0.126105 0.232052 0.775556 Br
0.376119 0.232164 0.025631 Br
0.626173 0.232230 0.275812 Br
0.875651 0.232278 0.525558 Br
0.126061 0.732139 0.775439 Br
0.376109 0.731894 0.025578 Br
0.875966 0.731808 0.525282 Br
0.626306 0.232446 0.774724 Br
0.876058 0.232058 0.025541 Br
0.626052 0.732173 0.775880 Br
0.876092 0.732124 0.025374 Br
0.874530 0.768123 0.224247 Br
0.124092 0.767796 0.474570 Br
0.873845 0.268184 0.224426 Br
0.123661 0.268258 0.474736 Br
0.873802 0.768031 0.724525 Br
0.123930 0.767924 0.974499 Br
0.373849 0.767900 0.224308 Br
0.624021 0.769830 0.474007 Br
0.874002 0.267301 0.724531 Br
0.123907 0.267977 0.974533 Br
0.373971 0.267717 0.224637 Br
0.373904 0.767822 0.724455 Br
0.623872 0.767893 0.974688 Br
0.623868 0.267983 0.974645 Br
0.974470 0.232086 0.373938 Br
0.224667 0.232228 0.623983 Br
0.974555 0.732306 0.374010 Br
0.224557 0.731696 0.623772 Br
0.974481 0.232042 0.873821 Br
0.224378 0.231936 0.123938 Br
0.474426 0.231998 0.374014 Br
0.724904 0.231016 0.624091 Br
0.974559 0.732063 0.873839 Br
0.224685 0.731892 0.123962 Br
0.474512 0.232063 0.874154 Br
0.724434 0.232075 0.124137 Br
0.474448 0.731880 0.873738 Br
0.725005 0.732146 0.123810 Br
0.126143 0.017990 0.275492 Br
0.376159 0.017799 0.525461 Br
0.127178 0.517642 0.277088 Br
0.126117 0.017992 0.775433 Br
0.376139 0.017909 0.025418 Br
0.626090 0.017967 0.275403 Br
0.876006 0.017963 0.525403 Br
0.126162 0.517663 0.775163 Br
0.376178 0.518082 0.025542 Br
0.871309 0.517846 0.526249 Br
0.626103 0.017994 0.775430 Br
0.876077 0.017907 0.025464 Br
0.626162 0.517666 0.776565 Br
0.876069 0.517958 0.025441 Br
0.025482 0.982040 0.126142 Br
0.275369 0.982052 0.376196 Br
0.025934 0.482099 0.126212 Br
0.025455 0.982030 0.626008 Br
0.275460 0.982011 0.876061 Br
0.525488 0.981936 0.126159 Br
0.775480 0.982153 0.376202 Br
0.024775 0.481794 0.625237 Br
0.275736 0.481898 0.875728 Br
0.523498 0.482982 0.129807 Br
0.773627 0.480623 0.376807 Br
0.525425 0.982083 0.626011 Br
0.775441 0.981842 0.876048 Br
0.775659 0.482705 0.875478 Br
0.385857 0.370639 0.353646 Cs
0.637947 0.366820 0.616035 Cs
0.609401 0.635187 0.380257 Cs
0.351545 0.626150 0.638568 Cs
0.392874 0.371704 0.615559 Cs
0.645622 0.374888 0.361273 Cs
0.614529 0.627383 0.649969 Cs
0.363803 0.626129 0.393042 Cs
0.249818 0.249292 0.249612 Pb
0.499682 0.249927 0.499869 Pb
0.500015 0.248961 0.249460 Pb
0.249662 0.249531 0.500051 Pb
0.504586 0.498823 0.252997 Pb
0.246587 0.500394 0.499511 Pb
0.250458 0.499706 0.250455 Pb
0.495038 0.501213 0.507101 Pb
0.483523 0.624182 0.730323 Br
0.734066 0.623817 0.480263 Br
0.735459 0.374677 0.738571 Br
0.477669 0.376214 0.487794 Br
0.269481 0.624826 0.264857 Br
0.527309 0.623464 0.513656 Br
0.516265 0.373583 0.268617 Br
0.264649 0.375830 0.518660 Br
0.374308 0.482197 0.723711 Br
0.720701 0.516602 0.622357 Br
0.522987 0.265889 0.626214 Br
0.274298 0.266782 0.376229 Br
0.626385 0.737697 0.270485 Br
0.376581 0.728621 0.524591 Br
0.373959 0.266840 0.725983 Br
0.623525 0.271447 0.475890 Br
0.474951 0.732266 0.374116 Br
0.724736 0.732210 0.623766 Br
0.630126 0.521826 0.268733 Br
0.376538 0.522217 0.521858 Br
0.531517 0.480632 0.628428 Br
0.277476 0.481778 0.376917 Br
0.526108 0.501966 0.386028 Br
