Cs7 Pb8 Br24
1.0
8.420018 0.000000 8.077981
0.000000 11.763808 0.000000
-8.420018 0.000000 8.077981
Cs Pb Br Cs
6 8 24 1
direct
0.277215 0.250000 0.210582 Cs
0.771049 0.250000 0.704075 Cs
0.203708 0.750001 0.766722 Cs
0.296338 0.249999 0.729105 Cs
0.783884 0.250000 0.226253 Cs
0.737270 0.750000 0.794012 Cs
-0.000331 0.000532 0.000265 Pb
0.500898 -0.002954 0.498032 Pb
0.499633 -0.002916 0.000826 Pb
0.004634 -0.000349 0.495420 Pb
0.499641 0.502919 0.000829 Pb
0.004633 0.500348 0.495419 Pb
-0.000329 0.499464 0.000269 Pb
0.500898 0.502958 0.498030 Pb
0.469252 0.749999 0.948256 Br
0.968568 0.750000 0.475407 Br
0.953444 0.250000 0.965302 Br
0.468265 0.250001 0.470583 Br
0.029580 0.750000 0.019861 Br
0.541636 0.750001 0.540497 Br
0.528653 0.249999 0.030619 Br
0.033216 0.250000 0.543126 Br
0.247281 0.462231 0.949444 Br
0.749926 0.460004 0.452950 Br
0.448100 0.531246 0.246789 Br
0.950444 0.529908 0.746581 Br
0.552197 0.035698 0.751207 Br
0.042947 0.052317 0.249532 Br
0.750921 0.963986 0.051416 Br
0.254078 0.976398 0.560644 Br
0.247281 0.037768 0.949445 Br
0.749926 0.039996 0.452950 Br
0.448099 0.968753 0.246789 Br
0.950445 0.970093 0.746581 Br
0.750921 0.536013 0.051415 Br
0.254078 0.523602 0.560644 Br
0.552197 0.464302 0.751207 Br
0.042945 0.447683 0.249532 Br
0.588498 0.749999 0.282527 Cs
