Cs7 Pb8 Br24                            
   1.0000000000000000     
     8.4200180000000007    0.0000000000000000    8.0779809999999994
     0.0000000000000000   11.7638079999999992    0.0000000000000000
    -8.4200180000000007    0.0000000000000000    8.0779809999999994
   Cs   Pb   Br   Cs
     6     8    24     1
Direct
  0.2710890000000035  0.2465540000000033  0.1932860000000005
  0.7640480000000025  0.2431300000000007  0.7556280000000015
  0.2281180000000020  0.7718040000000030  0.7697929999999999
  0.2721349999999987  0.2291310000000024  0.7305369999999982
  0.7359829999999974  0.7563919999999982  0.7448779999999999
  0.2287830000000000  0.7534929999999989  0.3070129999999978
  0.0014230000000026  0.9934149999999988  0.0119150000000019
  0.4988609999999980  0.0067980000000034  0.4880739999999975
  0.5146980000000028  0.9985720000000029  0.0015840000000011
  0.9851159999999979  0.0016260000000017  0.4984350000000006
  0.4997850000000028  0.4995290000000026  0.9854139999999987
  0.9999370000000027  0.5013360000000020  0.5146500000000032
  0.0144239999999982  0.5011459999999985  0.9991109999999992
  0.4856610000000003  0.4994500000000031  0.5008740000000032
  0.4844349999999977  0.7464310000000012  0.9408880000000011
  0.9472730000000027  0.7502750000000020  0.4592960000000019
  0.9904920000000033  0.2492140000000020  0.9780000000000015
  0.4321199999999976  0.2525010000000023  0.4654120000000006
  0.0686340000000030  0.7480890000000002  0.0348439999999997
  0.5103909999999985  0.7513599999999983  0.5220669999999998
  0.5512689999999978  0.2501529999999974  0.0395869999999974
  0.0158589999999990  0.2541390000000021  0.5588699999999989
  0.2539480000000012  0.4550309999999982  0.9476379999999978
  0.7435740000000024  0.4763799999999989  0.5434920000000005
  0.4442549999999983  0.5274980000000014  0.2451330000000027
  0.9934820000000002  0.5670870000000008  0.7524960000000007
  0.5359580000000008  0.0309340000000020  0.7502550000000028
  0.0601610000000008  0.0288049999999984  0.2551910000000035
  0.7612960000000015  0.9283009999999976  0.0269529999999989
  0.2403660000000016  0.9725830000000002  0.5415989999999979
  0.2596390000000000  0.0278040000000033  0.9585670000000022
  0.7385689999999983  0.0712929999999972  0.4728890000000021
  0.4392810000000011  0.9719180000000023  0.2449020000000033
  0.9633719999999997  0.9688850000000002  0.7499279999999970
  0.7567570000000003  0.5212989999999991  0.9559119999999979
  0.2462560000000025  0.5457189999999983  0.5528890000000004
  0.5067200000000014  0.4342589999999973  0.7475880000000004
  0.0557629999999989  0.4724339999999998  0.2548949999999977
  0.7498310000000004  0.4966549999999970  0.2496420000000015

  0.00000000E+00  0.00000000E+00  0.00000000E+00
  0.00000000E+00  0.00000000E+00  0.00000000E+00
  0.00000000E+00  0.00000000E+00  0.00000000E+00
  0.00000000E+00  0.00000000E+00  0.00000000E+00
  0.00000000E+00  0.00000000E+00  0.00000000E+00
  0.00000000E+00  0.00000000E+00  0.00000000E+00
  0.00000000E+00  0.00000000E+00  0.00000000E+00
  0.00000000E+00  0.00000000E+00  0.00000000E+00
  0.00000000E+00  0.00000000E+00  0.00000000E+00
  0.00000000E+00  0.00000000E+00  0.00000000E+00
  0.00000000E+00  0.00000000E+00  0.00000000E+00
  0.00000000E+00  0.00000000E+00  0.00000000E+00
  0.00000000E+00  0.00000000E+00  0.00000000E+00
  0.00000000E+00  0.00000000E+00  0.00000000E+00
  0.00000000E+00  0.00000000E+00  0.00000000E+00
  0.00000000E+00  0.00000000E+00  0.00000000E+00
  0.00000000E+00  0.00000000E+00  0.00000000E+00
  0.00000000E+00  0.00000000E+00  0.00000000E+00
  0.00000000E+00  0.00000000E+00  0.00000000E+00
  0.00000000E+00  0.00000000E+00  0.00000000E+00
  0.00000000E+00  0.00000000E+00  0.00000000E+00
  0.00000000E+00  0.00000000E+00  0.00000000E+00
  0.00000000E+00  0.00000000E+00  0.00000000E+00
  0.00000000E+00  0.00000000E+00  0.00000000E+00
  0.00000000E+00  0.00000000E+00  0.00000000E+00
  0.00000000E+00  0.00000000E+00  0.00000000E+00
  0.00000000E+00  0.00000000E+00  0.00000000E+00
  0.00000000E+00  0.00000000E+00  0.00000000E+00
  0.00000000E+00  0.00000000E+00  0.00000000E+00
  0.00000000E+00  0.00000000E+00  0.00000000E+00
  0.00000000E+00  0.00000000E+00  0.00000000E+00
  0.00000000E+00  0.00000000E+00  0.00000000E+00
  0.00000000E+00  0.00000000E+00  0.00000000E+00
  0.00000000E+00  0.00000000E+00  0.00000000E+00
  0.00000000E+00  0.00000000E+00  0.00000000E+00
  0.00000000E+00  0.00000000E+00  0.00000000E+00
  0.00000000E+00  0.00000000E+00  0.00000000E+00
  0.00000000E+00  0.00000000E+00  0.00000000E+00
  0.00000000E+00  0.00000000E+00  0.00000000E+00
