Cs7 Pb8 Br24
1.0
8.420018 0.000000 8.077981
0.000000 11.763808 0.000000
-8.420018 0.000000 8.077981
Cs Pb Br Cs
6 8 24 1
direct
0.271089 0.246554 0.193286 Cs
0.764048 0.243130 0.755628 Cs
0.228118 0.771804 0.769793 Cs
0.272135 0.229131 0.730537 Cs
0.735983 0.756392 0.744878 Cs
0.228783 0.753493 0.307013 Cs
0.001423 -0.006585 0.011915 Pb
0.498861 0.006798 0.488074 Pb
0.514698 -0.001428 0.001584 Pb
-0.014884 0.001626 0.498435 Pb
0.499785 0.499529 -0.014586 Pb
-0.000063 0.501336 0.514650 Pb
0.014424 0.501146 -0.000889 Pb
0.485661 0.499450 0.500874 Pb
0.484435 0.746431 0.940888 Br
0.947273 0.750275 0.459296 Br
0.990492 0.249214 0.978000 Br
0.432120 0.252501 0.465412 Br
0.068634 0.748089 0.034844 Br
0.510391 0.751360 0.522067 Br
0.551269 0.250153 0.039587 Br
0.015859 0.254139 0.558870 Br
0.253948 0.455031 0.947638 Br
0.743574 0.476380 0.543492 Br
0.444255 0.527498 0.245133 Br
0.993482 0.567087 0.752496 Br
0.535958 0.030934 0.750255 Br
0.060161 0.028805 0.255191 Br
0.761296 0.928301 0.026953 Br
0.240366 0.972583 0.541599 Br
0.259639 0.027804 0.958567 Br
0.738569 0.071293 0.472889 Br
0.439281 0.971918 0.244902 Br
0.963372 0.968885 0.749928 Br
0.756757 0.521299 -0.044088 Br
0.246256 0.545719 0.552889 Br
0.506720 0.434259 0.747588 Br
0.055763 0.472434 0.254895 Br
0.749831 0.496655 0.249642 Cs
