Cs8 Pb8 Br23
1.0
8.456489 0.000000 8.040301
0.000000 11.729847 0.000000
-8.456489 0.000000 8.040301
Cs Pb Br
8 8 23
direct
0.264807 0.239958 0.201729 Cs
0.776857 0.236653 0.724883 Cs
0.716748 0.768411 0.262698 Cs
0.209149 0.753888 0.778288 Cs
0.280502 0.243889 0.728596 Cs
0.799027 0.246529 0.226176 Cs
0.728704 0.754370 0.792441 Cs
0.224480 0.756930 0.290739 Cs
0.001748 -0.001910 -0.000362 Pb
0.498175 0.001246 0.499442 Pb
0.499319 0.000943 -0.000166 Pb
-0.001410 -0.000523 0.500533 Pb
0.505537 0.496988 -0.005954 Pb
0.001533 0.501588 0.498674 Pb
0.002437 0.500387 -0.001307 Pb
0.490682 0.500044 0.508383 Pb
0.474237 0.747872 0.971418 Br
0.965904 0.748763 0.462911 Br
0.976242 0.249433 0.973706 Br
0.453980 0.253600 0.469086 Br
0.034142 0.748805 0.032388 Br
0.540983 0.747396 0.521205 Br
0.531286 0.251498 0.042858 Br
0.020807 0.251939 0.533271 Br
0.252378 0.466763 0.951546 Br
0.945587 0.531377 0.744514 Br
0.544568 0.033870 0.752130 Br
0.046930 0.028551 0.253022 Br
0.753550 0.975856 0.041815 Br
0.250753 0.962016 0.549639 Br
0.249145 0.031114 0.948537 Br
0.745724 0.038292 0.451318 Br
0.447980 0.967431 0.247710 Br
0.951402 0.963939 0.747923 Br
0.753997 0.533485 0.053369 Br
0.246554 0.539085 0.552977 Br
0.557138 0.462570 0.750983 Br
0.056737 0.467428 0.252358 Br
0.607380 0.498361 0.344756 Br
