Cs4 Pb4 Br12                            
   1.0000000000000000     
     8.5884179498362574    0.0000000000000000    0.0000000000000000
     0.0000000000000000   11.6062237353075464    0.0000000000000000
     0.0000000000000000    0.0000000000000000    8.2395401647844757
   Cs   Pb   Br
     4     4    12
Direct
  0.0582191977896827  0.2500000000000000  0.4815577014412256
  0.4417808022103173  0.7500000000000000  0.9815577014412256
  0.5582191977896827  0.2500000000000000  0.0184422985587744
  0.9417808022103173  0.7500000000000000  0.5184422985587744
  0.0000000000000000  0.0000000000000000  0.0000000000000000
  0.5000000000000000  0.0000000000000000  0.5000000000000000
  0.5000000000000000  0.5000000000000000  0.5000000000000000
  0.0000000000000000  0.5000000000000000  0.0000000000000000
  0.5167978784142448  0.7500000000000000  0.4218315353624220
  0.9832021215857552  0.2500000000000000  0.9218315353624220
  0.0167978784142448  0.7500000000000000  0.0781684646375780
  0.4832021215857552  0.2500000000000000  0.5781684646375780
  0.2875327025054801  0.4615830124375506  0.2096898672791596
  0.2124672974945199  0.5384169875624494  0.7096898672791596
  0.7875327025054801  0.0384169875624494  0.2903101327208404
  0.7124672974945199  0.9615830124375506  0.7903101327208404
  0.2875327025054801  0.0384169875624494  0.2096898672791596
  0.2124672974945199  0.9615830124375506  0.7096898672791596
  0.7124672974945199  0.5384169875624494  0.7903101327208404
  0.7875327025054801  0.4615830124375506  0.2903101327208404

  0.00000000E+00  0.00000000E+00  0.00000000E+00
  0.00000000E+00  0.00000000E+00  0.00000000E+00
  0.00000000E+00  0.00000000E+00  0.00000000E+00
  0.00000000E+00  0.00000000E+00  0.00000000E+00
  0.00000000E+00  0.00000000E+00  0.00000000E+00
  0.00000000E+00  0.00000000E+00  0.00000000E+00
  0.00000000E+00  0.00000000E+00  0.00000000E+00
  0.00000000E+00  0.00000000E+00  0.00000000E+00
  0.00000000E+00  0.00000000E+00  0.00000000E+00
  0.00000000E+00  0.00000000E+00  0.00000000E+00
  0.00000000E+00  0.00000000E+00  0.00000000E+00
  0.00000000E+00  0.00000000E+00  0.00000000E+00
  0.00000000E+00  0.00000000E+00  0.00000000E+00
  0.00000000E+00  0.00000000E+00  0.00000000E+00
  0.00000000E+00  0.00000000E+00  0.00000000E+00
  0.00000000E+00  0.00000000E+00  0.00000000E+00
  0.00000000E+00  0.00000000E+00  0.00000000E+00
  0.00000000E+00  0.00000000E+00  0.00000000E+00
  0.00000000E+00  0.00000000E+00  0.00000000E+00
  0.00000000E+00  0.00000000E+00  0.00000000E+00
