Cs64 Pb64 Br191
1.0
16.840035 0.000000 16.155961
0.000000 23.527616 0.000000
-16.840035 0.000000 16.155961
Cs Pb Br Cs Pb Br
56 56 168 8 8 23
direct
0.885865 0.875072 0.353491 Cs
0.135887 0.875116 0.603660 Cs
0.886302 0.374818 0.352809 Cs
0.135618 0.374889 0.604064 Cs
0.886287 0.875085 0.853652 Cs
0.135835 0.875045 0.103298 Cs
0.385726 0.875391 0.353751 Cs
0.635996 0.875415 0.603448 Cs
0.885734 0.374993 0.853172 Cs
0.136207 0.374780 0.103938 Cs
0.385885 0.875144 0.853537 Cs
0.636010 0.874947 0.103817 Cs
0.386002 0.374144 0.853442 Cs
0.636599 0.374968 0.102881 Cs
0.103615 0.124940 0.385981 Cs
0.353587 0.124718 0.636035 Cs
0.099749 0.625305 0.385630 Cs
0.103418 0.124867 0.885991 Cs
0.353454 0.124692 0.135618 Cs
0.603267 0.124784 0.385952 Cs
0.853997 0.124628 0.636219 Cs
0.103525 0.625074 0.885828 Cs
0.355548 0.625139 0.136769 Cs
0.853301 0.624884 0.635544 Cs
0.603604 0.125005 0.885881 Cs
0.853775 0.124863 0.135850 Cs
0.605040 0.625815 0.886448 Cs
0.854321 0.625307 0.136054 Cs
0.896502 0.875301 0.113756 Cs
0.146231 0.875137 0.363833 Cs
0.896419 0.374603 0.113084 Cs
0.146544 0.374799 0.364196 Cs
0.896782 0.875123 0.614152 Cs
0.146193 0.875086 0.863923 Cs
0.396176 0.875255 0.113738 Cs
0.646626 0.876470 0.362876 Cs
0.895135 0.374476 0.613850 Cs
0.146321 0.374829 0.863645 Cs
0.392568 0.375388 0.114627 Cs
0.396379 0.875083 0.614161 Cs
0.646368 0.875096 0.864122 Cs
0.646905 0.374885 0.864386 Cs
0.113644 0.124692 0.146060 Cs
0.363463 0.124248 0.396711 Cs
0.114287 0.624641 0.146137 Cs
0.113932 0.124849 0.646238 Cs
0.363918 0.124884 0.896403 Cs
0.614151 0.124859 0.146159 Cs
0.864178 0.124857 0.396414 Cs
0.113374 0.625066 0.646028 Cs
0.363294 0.625494 0.896539 Cs
0.613959 0.628057 0.145313 Cs
0.863843 0.625389 0.396614 Cs
0.613679 0.124546 0.646125 Cs
0.864263 0.124787 0.896845 Cs
0.863976 0.625171 0.896168 Cs
0.751386 0.751016 0.249415 Pb
0.999864 0.750233 0.500077 Pb
0.750334 0.249935 0.249609 Pb
0.999928 0.249620 0.499993 Pb
0.750162 0.750547 0.750047 Pb
0.000039 0.749941 0.999955 Pb
0.249556 0.750190 0.249641 Pb
0.500016 0.750402 0.500078 Pb
0.750727 0.248683 0.750667 Pb
0.000013 0.249940 0.999888 Pb
0.249750 0.750324 0.750170 Pb
0.499719 0.750432 0.999610 Pb
0.249729 0.249474 0.750265 Pb
0.499914 0.249942 0.000242 Pb
0.000291 0.750214 0.249924 Pb
0.249574 0.750293 0.500125 Pb
0.999914 0.249744 0.249860 Pb
0.999959 0.749999 0.750011 Pb
0.249843 0.750139 0.999960 Pb
0.499341 0.750910 0.249725 Pb
0.750327 0.751219 0.500385 Pb
0.999965 0.249772 0.750005 Pb
0.249789 0.249667 0.999711 Pb
0.750070 0.249571 0.499942 Pb
0.499896 0.750111 0.750057 Pb
0.750270 0.750428 0.999907 Pb
0.499885 0.249402 0.750268 Pb
0.750098 0.249658 -0.000010 Pb
-0.000013 0.000011 0.249968 Pb
0.249868 0.999690 0.500074 Pb
0.000328 0.499645 0.249870 Pb
0.000019 0.999915 0.750010 Pb
0.249891 0.999848 0.999907 Pb
0.499839 0.000198 0.249826 Pb
0.750042 0.000378 0.499995 Pb
0.999757 0.500050 0.749914 Pb
0.249659 0.500222 0.999756 Pb
0.745752 0.499966 0.498235 Pb
0.500011 0.999761 0.750069 Pb
0.750019 0.000048 0.999960 Pb
0.500108 0.500189 0.750625 Pb
0.750480 0.500266 0.000116 Pb
0.750212 0.000503 0.249918 Pb
-0.000035 0.999833 0.499953 Pb
0.751538 0.500368 0.249171 Pb
0.997993 0.499246 0.499634 Pb
0.750066 0.999623 0.750034 Pb
-0.000009 0.999899 0.999953 Pb
0.249816 0.999724 0.249823 Pb
0.499954 0.000260 0.499987 Pb
0.750090 0.500513 0.749831 Pb
0.000030 0.499866 0.999850 Pb
0.249904 0.999895 0.750018 Pb
0.500006 0.000171 0.999963 Pb
0.249804 0.499943 0.750320 Pb
0.499542 0.500123 0.997893 Pb
0.984225 0.124992 0.230417 Br
0.233826 0.124679 0.481505 Br
0.985016 0.624765 0.231171 Br
0.230812 0.625362 0.478770 Br
0.984542 0.124926 0.730503 Br
0.234251 0.124923 0.980371 Br
0.484374 0.125520 0.230080 Br
0.733657 0.125350 0.479799 Br
0.984045 0.624913 0.730133 Br
0.233951 0.624970 0.980383 Br
0.484958 0.623252 0.236875 Br
0.484422 0.124899 0.730857 Br
0.734009 0.125114 0.980394 Br
0.734592 0.625113 0.981040 Br
0.230284 0.874551 0.233986 Br
0.480303 0.875058 0.484525 Br
0.232562 0.374616 0.235075 Br
0.230415 0.874844 0.734170 Br
0.480604 0.874981 0.984161 Br
0.732017 0.875872 0.233682 Br
0.980280 0.874601 0.484066 Br
0.231892 0.374954 0.733745 Br
0.479080 0.375767 0.985792 Br
0.731302 0.375895 0.232428 Br
0.979030 0.374575 0.484067 Br
0.729862 0.874872 0.734039 Br
0.980803 0.874832 0.984271 Br
0.980584 0.375021 0.983695 Br
0.769821 0.125883 0.265678 Br
0.019237 0.124759 0.515529 Br
0.769432 0.625807 0.266242 Br
0.016146 0.624121 0.516292 Br
0.770174 0.124386 0.766388 Br
0.019076 0.124996 0.015485 Br
0.269845 0.124403 0.265311 Br
0.518730 0.126139 0.515318 Br
0.768966 0.625058 0.765082 Br
0.019450 0.624772 0.015625 Br
0.269539 0.124837 0.765701 Br
0.519367 0.125499 0.015829 Br
0.268074 0.624853 0.766893 Br
0.518909 0.624446 0.015269 Br
0.015652 0.874951 0.269530 Br
0.265998 0.874548 0.519708 Br
0.016356 0.374857 0.269625 Br
0.015671 0.874853 0.769115 Br
0.265719 0.874876 0.019447 Br
0.514819 0.874912 0.269380 Br
0.766255 0.875439 0.519790 Br
0.015364 0.375090 0.768963 Br
0.264912 0.375085 0.018543 Br
0.761761 0.375510 0.519715 Br
0.515622 0.874405 0.769261 Br
0.765562 0.875135 0.019592 Br
0.516548 0.375410 0.768209 Br
0.765437 0.375166 0.018821 Br
0.873887 0.982217 0.224499 Br
0.123929 0.981900 0.474524 Br
0.874985 0.482005 0.223379 Br
0.119660 0.482245 0.474997 Br
0.873827 0.981930 0.724525 Br
0.123929 0.982044 0.974492 Br
0.373951 0.982028 0.224475 Br
0.623794 0.982188 0.474532 Br
0.873531 0.483131 0.723388 Br
0.123970 0.482000 0.974571 Br
0.377072 0.481495 0.231906 Br
0.373969 0.982007 0.724521 Br
0.623813 0.982088 0.974573 Br
0.623304 0.481861 0.975467 Br
0.974557 0.017891 0.373879 Br
0.224554 0.017840 0.623882 Br
0.973473 0.517673 0.373759 Br
0.224504 0.518015 0.623622 Br
0.974565 0.017850 0.873853 Br
0.224511 0.017922 0.123895 Br
0.474519 0.017917 0.373847 Br
0.724527 0.018106 0.623843 Br
0.974479 0.517964 0.873771 Br
0.226940 0.517763 0.124121 Br
0.474556 0.017925 0.873883 Br
0.724531 0.018077 0.123888 Br
0.475365 0.517424 0.874027 Br
0.724280 0.518981 0.123689 Br
0.025562 0.767805 0.126134 Br
0.275657 0.767962 0.376123 Br
0.025437 0.268027 0.126052 Br
0.025480 0.767937 0.625973 Br
0.275551 0.767997 0.876051 Br
0.524633 0.767601 0.125867 Br
0.774458 0.767737 0.376099 Br
0.025281 0.267918 0.625979 Br
0.275459 0.267933 0.876140 Br
0.525011 0.269838 0.126499 Br
0.776007 0.267749 0.376171 Br
0.525595 0.767771 0.625963 Br
0.775522 0.768050 0.875949 Br
0.775616 0.267522 0.876237 Br
0.126017 0.231923 0.275159 Br
0.375669 0.231905 0.525181 Br
0.126328 0.731833 0.275668 Br
0.126123 0.232075 0.775554 Br
0.376101 0.232206 0.025606 Br
0.626038 0.231768 0.275389 Br
0.875657 0.232097 0.525615 Br
0.126069 0.732076 0.775352 Br
0.376126 0.731838 0.025467 Br
0.875919 0.732319 0.525413 Br
0.626168 0.232405 0.774736 Br
0.875969 0.232067 0.025500 Br
0.625945 0.732049 0.775451 Br
0.876067 0.732085 0.025339 Br
0.874577 0.768222 0.224077 Br
0.123923 0.768045 0.474499 Br
0.873788 0.268093 0.224284 Br
0.123572 0.267989 0.474726 Br
0.873773 0.767943 0.724420 Br
0.123958 0.767947 0.974453 Br
0.373870 0.767896 0.224239 Br
0.623852 0.770270 0.474368 Br
0.873944 0.267540 0.724392 Br
0.123894 0.267964 0.974438 Br
0.373962 0.267346 0.224326 Br
0.373914 0.767828 0.724463 Br
0.623778 0.767797 0.974710 Br
0.623727 0.268165 0.974668 Br
0.974517 0.232000 0.373821 Br
0.224579 0.232203 0.624140 Br
0.974128 0.732278 0.373892 Br
0.224353 0.731837 0.623814 Br
0.974438 0.232041 0.873841 Br
0.224223 0.231924 0.123750 Br
0.474051 0.231441 0.373834 Br
0.725204 0.230929 0.624045 Br
0.974567 0.732001 0.873844 Br
0.224665 0.731800 0.123933 Br
0.474559 0.232273 0.874224 Br
0.724348 0.232084 0.123975 Br
0.474468 0.731689 0.873706 Br
0.725568 0.732533 0.123773 Br
0.126158 0.017987 0.275425 Br
0.376139 0.017857 0.525438 Br
0.127097 0.517472 0.276612 Br
0.126124 0.017933 0.775399 Br
0.376159 0.017877 0.025336 Br
0.625966 0.017973 0.275347 Br
0.876024 0.018040 0.525367 Br
0.126278 0.517659 0.775087 Br
0.376439 0.518177 0.025156 Br
0.867378 0.515626 0.523741 Br
0.626008 0.017974 0.775394 Br
0.876036 0.017900 0.025406 Br
0.625679 0.517955 0.775819 Br
0.875870 0.517958 0.025466 Br
0.025444 0.982035 0.126090 Br
0.275322 0.982031 0.376101 Br
0.025771 0.482005 0.126155 Br
0.025420 0.982040 0.626012 Br
0.275449 0.981984 0.876068 Br
0.525440 0.982027 0.126120 Br
0.775429 0.982131 0.376072 Br
0.024004 0.481778 0.625510 Br
0.275895 0.481900 0.875811 Br
0.522513 0.481917 0.130673 Br
0.775198 0.481837 0.375853 Br
0.525392 0.982193 0.626003 Br
0.775406 0.981835 0.876059 Br
0.775256 0.482668 0.875669 Br
0.380998 0.367038 0.351915 Cs
0.639067 0.368126 0.612070 Cs
0.612656 0.635352 0.382752 Cs
0.351061 0.625909 0.637738 Cs
0.390941 0.372402 0.614293 Cs
0.650723 0.370935 0.362823 Cs
0.614229 0.627760 0.646791 Cs
0.360035 0.629398 0.396443 Cs
0.249388 0.248772 0.249319 Pb
0.499522 0.250607 0.499714 Pb
0.500188 0.249496 0.249861 Pb
0.249402 0.249360 0.500347 Pb
0.504431 0.497938 0.247507 Pb
0.247833 0.501156 0.499765 Pb
0.250142 0.500003 0.250641 Pb
0.499719 0.499655 0.505975 Pb
0.483691 0.624089 0.729715 Br
0.735221 0.625266 0.482550 Br
0.734532 0.374611 0.737704 Br
0.473687 0.376890 0.484090 Br
0.270020 0.624745 0.265053 Br
0.523036 0.624489 0.510960 Br
0.516290 0.375340 0.275372 Br
0.263818 0.375640 0.516742 Br
0.374756 0.482017 0.724204 Br
0.719773 0.515455 0.622855 Br
0.522636 0.267969 0.626036 Br
0.272277 0.264246 0.376047 Br
0.626302 0.737278 0.270608 Br
0.376273 0.730245 0.525157 Br
0.373978 0.267159 0.725726 Br
0.623367 0.269674 0.476600 Br
0.474708 0.731950 0.373879 Br
0.724734 0.732537 0.623815 Br
0.627582 0.523101 0.271046 Br
0.372547 0.522865 0.522979 Br
0.531681 0.481822 0.623247 Br
0.278560 0.482563 0.376372 Br
0.603701 0.490158 0.443574 Br
