Cs63 Pb64 Br192
1.0
16.840035 0.000000 16.155961
0.000000 23.527616 0.000000
-16.840035 0.000000 16.155961
Cs Pb Br Cs Pb Br Cs
56 56 168 6 8 24 1
Selective Dynamics 
Direct
0.885941 0.875011 0.354062 F F F
0.136260 0.874667 0.603828 F F F
0.885836 0.375531 0.354021 F F F
0.136175 0.376046 0.603914 F F F
0.886259 0.875217 0.853664 F F F
0.136932 0.874873 0.105469 F F F
0.386693 0.882396 0.351851 F F F
0.639123 0.878891 0.606811 F F F
0.886229 0.375386 0.853721 F F F
0.136873 0.375792 0.105071 F F F
0.385864 0.875049 0.854687 F F F
0.636356 0.877112 0.106469 F F F
0.385771 0.375623 0.854389 F F F
0.636674 0.374447 0.106883 F F F
0.105947 0.125252 0.386636 F F F
0.353638 0.125680 0.637138 F F F
0.110427 0.625295 0.388744 F F F
0.103848 0.125301 0.886438 F F F
0.351861 0.125386 0.135566 F F F
0.606657 0.125737 0.388526 F F F
0.853679 0.125267 0.635923 F F F
0.103814 0.625331 0.886802 F F F
0.350426 0.625483 0.137875 F F F
0.853119 0.625583 0.634693 F F F
0.604015 0.125328 0.886232 F F F
0.853534 0.125308 0.136380 F F F
0.604355 0.625409 0.886236 F F F
0.854519 0.625231 0.135868 F F F
0.896605 0.874880 0.114423 F F F
0.145886 0.875062 0.364476 F F F
0.896541 0.375770 0.114476 F F F
0.145643 0.375677 0.364504 F F F
0.897806 0.874974 0.614124 F F F
0.146766 0.874930 0.864063 F F F
0.397094 0.875675 0.114610 F F F
0.638446 0.870864 0.363670 F F F
0.897531 0.375595 0.614024 F F F
0.146800 0.375637 0.864077 F F F
0.397151 0.375473 0.114692 F F F
0.393054 0.878341 0.617603 F F F
0.646593 0.875184 0.864542 F F F
0.646644 0.375362 0.864481 F F F
0.113854 0.125308 0.146710 F F F
0.363143 0.125441 0.396774 F F F
0.117121 0.625473 0.148449 F F F
0.114212 0.125249 0.646322 F F F
0.364180 0.125267 0.896347 F F F
0.614632 0.125507 0.145636 F F F
0.864020 0.125257 0.396575 F F F
0.114777 0.625345 0.645405 F F F
0.362859 0.625506 0.896784 F F F
0.615602 0.625358 0.148480 F F F
0.863428 0.625424 0.399980 F F F
0.614332 0.125333 0.647240 F F F
0.864206 0.125258 0.897105 F F F
0.863986 0.625260 0.896485 F F F
0.749257 0.749535 0.251780 F F F
0.000910 0.750493 0.499763 F F F
0.749939 0.251175 0.250596 F F F
0.000112 0.250448 0.500006 F F F
0.750502 0.750433 0.750657 F F F
0.000254 0.750154 0.000445 F F F
0.252970 0.749630 0.253883 F F F
0.501046 0.754179 0.505106 F F F
0.750385 0.250211 0.750267 F F F
0.000115 0.250634 0.000185 F F F
0.250143 0.749994 0.749536 F F F
0.500134 0.749891 0.999568 F F F
0.249781 0.250450 0.750215 F F F
0.500069 0.250478 -0.000075 F F F
0.000250 0.749953 0.250414 F F F
0.253860 0.749828 0.499278 F F F
0.000026 0.250561 0.250145 F F F
0.000207 0.750191 0.750045 F F F
0.250232 0.750498 0.001042 F F F
0.503519 0.754246 0.246815 F F F
0.749511 0.750555 0.500328 F F F
0.000098 0.250581 0.750118 F F F
0.250117 0.250683 0.000083 F F F
0.750187 0.251329 0.499823 F F F
0.500087 0.750368 0.750246 F F F
0.749972 0.750473 0.000593 F F F
0.500432 0.250589 0.750485 F F F
0.750091 0.250666 0.000249 F F F
1.000002 0.000391 0.250125 F F F
0.250188 1.000130 0.500496 F F F
0.000051 0.500901 0.250351 F F F
0.000081 0.000433 0.750098 F F F
0.250041 0.000294 0.000081 F F F
0.500392 0.003171 0.249288 F F F
0.750174 0.999479 0.499884 F F F
0.000173 0.500741 0.750043 F F F
0.250276 0.500529 0.001079 F F F
0.749678 0.500819 0.500503 F F F
0.500471 0.000616 0.750472 F F F
0.750111 0.000325 0.000221 F F F
0.500157 0.500937 0.750383 F F F
0.749885 0.500522 0.000726 F F F
0.749953 0.000280 0.250659 F F F
0.000135 0.000594 0.500056 F F F
0.749267 0.502584 0.252558 F F F
0.000886 0.500576 0.499829 F F F
0.750481 0.000772 0.750366 F F F
0.000175 0.000224 0.000208 F F F
0.249767 0.000277 0.249808 F F F
0.500288 0.001112 0.500952 F F F
0.750565 0.500414 0.750670 F F F
0.000278 0.500654 0.000478 F F F
0.249738 0.000594 0.750241 F F F
0.500091 0.000678 -0.000010 F F F
0.250078 0.500973 0.749654 F F F
0.500099 0.501097 0.999544 F F F
0.984025 0.125711 0.230483 F F F
0.234018 0.125701 0.483293 F F F
0.985354 0.625692 0.229233 F F F
0.239939 0.625624 0.484459 F F F
0.984476 0.125729 0.730854 F F F
0.234591 0.125756 0.981035 F F F
0.482789 0.126157 0.227204 F F F
0.735763 0.125611 0.482581 F F F
0.984313 0.625717 0.729953 F F F
0.233699 0.625717 0.982424 F F F
0.482889 0.626221 0.226085 F F F
0.484790 0.125876 0.732068 F F F
0.734347 0.125668 0.981432 F F F
0.734716 0.625659 0.980994 F F F
0.231837 0.875995 0.234826 F F F
0.477548 0.878054 0.491128 F F F
0.231555 0.375664 0.234705 F F F
0.231864 0.875794 0.734421 F F F
0.481088 0.875589 0.984855 F F F
0.729457 0.875861 0.237272 F F F
0.982166 0.875919 0.483906 F F F
0.231807 0.375653 0.734448 F F F
0.480623 0.375945 0.984561 F F F
0.730155 0.376365 0.237790 F F F
0.982152 0.375476 0.483899 F F F
0.732843 0.875971 0.736774 F F F
0.980724 0.875572 0.984455 F F F
0.980701 0.375706 0.984447 F F F
0.769710 0.125988 0.266103 F F F
0.020173 0.125706 0.515843 F F F
0.775074 0.626218 0.265874 F F F
0.019458 0.625685 0.515342 F F F
0.770381 0.125674 0.766757 F F F
0.019454 0.125663 0.016024 F F F
0.268709 0.125887 0.265666 F F F
0.521395 0.125876 0.516994 F F F
0.769723 0.625596 0.765743 F F F
0.020759 0.625621 0.017405 F F F
0.268532 0.125770 0.766809 F F F
0.519372 0.125798 0.014701 F F F
0.271495 0.625669 0.764435 F F F
0.521394 0.625687 0.016440 F F F
0.015628 0.875834 0.269120 F F F
0.264996 0.876555 0.521200 F F F
0.015528 0.375565 0.269151 F F F
0.016235 0.875736 0.769638 F F F
0.266404 0.875889 0.019869 F F F
0.519116 0.878181 0.253495 F F F
0.768607 0.876341 0.520966 F F F
0.016269 0.375739 0.769733 F F F
0.266539 0.375602 0.019951 F F F
0.768623 0.375005 0.520409 F F F
0.515621 0.875865 0.770959 F F F
0.765577 0.875818 0.020426 F F F
0.515639 0.375987 0.770962 F F F
0.765588 0.375552 0.020374 F F F
0.873823 0.982188 0.224636 F F F
0.124135 0.982575 0.474815 F F F
0.874471 0.482203 0.225273 F F F
0.125611 0.483591 0.476216 F F F
0.874151 0.982256 0.724486 F F F
0.124069 0.982114 0.974525 F F F
0.374126 0.984699 0.223544 F F F
0.624049 0.981738 0.474278 F F F
0.874427 0.482137 0.724949 F F F
0.124259 0.482130 0.974918 F F F
0.376017 0.481523 0.225875 F F F
0.374070 0.985155 0.727101 F F F
0.624130 0.982376 0.974593 F F F
0.624025 0.482232 0.974375 F F F
0.974733 0.018371 0.374015 F F F
0.224804 0.018293 0.624807 F F F
0.974673 0.518629 0.374144 F F F
0.224984 0.517724 0.624468 F F F
0.974520 0.018248 0.874084 F F F
0.224050 0.018328 0.123952 F F F
0.475416 0.018859 0.373801 F F F
0.724984 0.018673 0.624528 F F F
0.974720 0.518513 0.874159 F F F
0.226260 0.517309 0.125639 F F F
0.474615 0.018454 0.873942 F F F
0.724742 0.018105 0.124149 F F F
0.474464 0.520208 0.873228 F F F
0.725188 0.517940 0.124838 F F F
0.025792 0.768369 0.126142 F F F
0.274525 0.778570 0.376867 F F F
0.025840 0.268364 0.126106 F F F
0.025826 0.768099 0.626378 F F F
0.275284 0.767923 0.876672 F F F
0.528669 0.768062 0.123321 F F F
0.775593 0.768760 0.376739 F F F
0.025884 0.268232 0.626268 F F F
0.275621 0.268348 0.876458 F F F
0.526857 0.264638 0.125263 F F F
0.775692 0.267969 0.376257 F F F
0.527314 0.773854 0.627179 F F F
0.776451 0.768452 0.877034 F F F
0.775948 0.268180 0.876344 F F F
0.125893 0.232181 0.275433 F F F
0.376278 0.231611 0.525737 F F F
0.126973 0.733038 0.276360 F F F
0.125930 0.232318 0.775980 F F F
0.376072 0.232326 0.025638 F F F
0.625925 0.231698 0.275841 F F F
0.876246 0.232177 0.525628 F F F
0.126206 0.731968 0.775806 F F F
0.376287 0.731857 0.026228 F F F
0.876907 0.734715 0.526375 F F F
0.626306 0.232471 0.776084 F F F
0.876168 0.232274 0.025809 F F F
0.626315 0.732999 0.776345 F F F
0.876244 0.732312 0.025601 F F F
0.874547 0.768555 0.225194 F F F
0.125494 0.767491 0.475948 F F F
0.873867 0.268340 0.224552 F F F
0.124026 0.268016 0.474771 F F F
0.874384 0.768285 0.724898 F F F
0.124151 0.768364 0.974877 F F F
0.375971 0.770532 0.226112 F F F
0.625064 0.776456 0.485477 F F F
0.874092 0.268261 0.724440 F F F
0.124042 0.268369 0.974482 F F F
0.374006 0.267474 0.223954 F F F
0.374332 0.768904 0.726391 F F F
0.624064 0.768229 0.974326 F F F
0.624091 0.268179 0.974580 F F F
0.974754 0.232094 0.374065 F F F
0.224738 0.232136 0.624870 F F F
0.974688 0.731943 0.374155 F F F
0.225000 0.733121 0.624396 F F F
0.974542 0.232196 0.874111 F F F
0.224157 0.232262 0.123978 F F F
0.475106 0.232212 0.373894 F F F
0.724834 0.231971 0.624474 F F F
0.974736 0.731983 0.874219 F F F
0.226359 0.734012 0.125662 F F F
0.474607 0.232124 0.873963 F F F
0.724808 0.232564 0.124135 F F F
0.474471 0.731537 0.873268 F F F
0.725134 0.732635 0.124540 F F F
0.125909 0.018298 0.275455 F F F
0.376268 0.020527 0.525880 F F F
0.126927 0.518068 0.275831 F F F
0.125908 0.018297 0.776069 F F F
0.376113 0.018208 0.025656 F F F
0.625996 0.020988 0.275658 F F F
0.876304 0.018313 0.525637 F F F
0.126245 0.518767 0.775981 F F F
0.376367 0.519388 0.026563 F F F
0.877034 0.516792 0.526545 F F F
0.626396 0.018224 0.776078 F F F
0.876212 0.018242 0.025860 F F F
0.626351 0.518170 0.776066 F F F
0.876253 0.518148 0.025572 F F F
0.025780 0.982165 0.126083 F F F
0.274694 0.985562 0.376338 F F F
0.025668 0.482112 0.126071 F F F
0.025885 0.982361 0.626233 F F F
0.275557 0.982197 0.876436 F F F
0.526913 0.986827 0.125235 F F F
0.775570 0.982421 0.376271 F F F
0.025796 0.482429 0.626349 F F F
0.275340 0.482750 0.876713 F F F
0.528426 0.482954 0.123401 F F F
0.775966 0.482243 0.376915 F F F
0.526390 0.984832 0.626566 F F F
0.776024 0.982491 0.876402 F F F
0.776252 0.482299 0.877063 F F F
0.386547 0.368628 0.352495 F F F
0.639162 0.371984 0.606102 F F F
0.355189 0.625557 0.632304 F F F
0.393232 0.374106 0.617603 F F F
0.638531 0.380734 0.363576 F F F
0.617797 0.625470 0.645778 F F F
0.249732 0.250895 0.249828 F F F
0.500490 0.249880 0.500960 F F F
0.500352 0.248795 0.249312 F F F
0.250113 0.250906 0.500593 F F F
0.503414 0.497661 0.246868 F F F
0.253906 0.501107 0.499354 F F F
0.252806 0.501373 0.253837 F F F
0.501237 0.496707 0.504990 F F F
0.486159 0.625901 0.728243 F F F
0.737625 0.625805 0.490807 F F F
0.732450 0.375264 0.736277 F F F
0.478200 0.373583 0.491537 F F F
0.270336 0.625808 0.270014 F F F
0.512489 0.626115 0.527159 F F F
0.519196 0.373905 0.253171 F F F
0.265020 0.374708 0.521654 F F F
0.374400 0.482766 0.726426 F F F
0.625334 0.474980 0.485330 F F F
0.488575 0.481108 0.372968 F F F
0.726499 0.516370 0.626001 F F F
0.526500 0.266686 0.626637 F F F
0.273883 0.265846 0.376414 F F F
0.626474 0.729270 0.276324 F F F
0.377447 0.742336 0.533841 F F F
0.374043 0.266813 0.726716 F F F
0.624059 0.269533 0.473753 F F F
0.488735 0.769962 0.373017 F F F
0.726013 0.735309 0.625929 F F F
0.626499 0.522483 0.276922 F F F
0.377633 0.509905 0.532915 F F F
0.528003 0.478367 0.627246 F F F
0.273963 0.472441 0.376901 F F F
0.487465 0.625474 0.376930 T T T
