Cs64 Pb64 Br191
1.0
16.840035 0.000000 16.155961
0.000000 23.527616 0.000000
-16.840035 0.000000 16.155961
Cs Pb Br Cs Pb Br
56 56 168 8 8 23
direct
0.885939 0.875151 0.353401 Cs
0.135772 0.875054 0.603725 Cs
0.885866 0.375147 0.352385 Cs
0.135513 0.374653 0.606728 Cs
0.886431 0.875218 0.853880 Cs
0.136013 0.875127 0.103437 Cs
0.385798 0.875555 0.353186 Cs
0.636360 0.875400 0.603476 Cs
0.885786 0.374760 0.853247 Cs
0.136189 0.374895 0.103838 Cs
0.386058 0.874986 0.853645 Cs
0.636040 0.875067 0.103780 Cs
0.387346 0.374941 0.849652 Cs
0.636908 0.374761 0.102860 Cs
0.102966 0.124849 0.385767 Cs
0.353954 0.124648 0.636348 Cs
0.102844 0.625970 0.386064 Cs
0.103436 0.124818 0.886184 Cs
0.353410 0.124897 0.135832 Cs
0.603373 0.124799 0.385537 Cs
0.855911 0.123818 0.636295 Cs
0.103626 0.624999 0.885769 Cs
0.353637 0.625201 0.135647 Cs
0.857908 0.627929 0.638957 Cs
0.603820 0.125529 0.885311 Cs
0.853955 0.124817 0.136148 Cs
0.606855 0.624716 0.885382 Cs
0.853493 0.625224 0.136401 Cs
0.896607 0.875171 0.114008 Cs
0.146442 0.875158 0.363839 Cs
0.896431 0.374990 0.113877 Cs
0.147103 0.374561 0.363906 Cs
0.896018 0.875003 0.613769 Cs
0.146707 0.875130 0.864285 Cs
0.396353 0.875381 0.113391 Cs
0.646657 0.875593 0.363719 Cs
0.895930 0.374265 0.614475 Cs
0.147362 0.374901 0.863895 Cs
0.396252 0.374928 0.112496 Cs
0.396429 0.875197 0.614140 Cs
0.646285 0.875018 0.864187 Cs
0.646608 0.375028 0.863132 Cs
0.113830 0.124954 0.146248 Cs
0.363695 0.124713 0.396236 Cs
0.113866 0.625153 0.146154 Cs
0.114302 0.124968 0.646168 Cs
0.364096 0.124896 0.896442 Cs
0.613929 0.124846 0.145944 Cs
0.864364 0.124862 0.396304 Cs
0.113231 0.625648 0.646846 Cs
0.364701 0.624294 0.896838 Cs
0.614081 0.625595 0.143941 Cs
0.861851 0.625825 0.395482 Cs
0.612887 0.122317 0.646045 Cs
0.864740 0.124646 0.899032 Cs
0.864970 0.625352 0.899073 Cs
0.750512 0.750734 0.249556 Pb
0.999898 0.750196 0.499785 Pb
0.750295 0.249569 0.249689 Pb
-0.000027 0.249724 0.499869 Pb
0.750378 0.750363 0.750644 Pb
0.000114 0.750205 0.000062 Pb
0.249749 0.750483 0.249782 Pb
0.499650 0.750948 0.500011 Pb
0.753119 0.247348 0.750822 Pb
0.000079 0.250194 0.999995 Pb
0.249843 0.750412 0.750340 Pb
0.499963 0.749815 0.999556 Pb
0.249734 0.249118 0.750650 Pb
0.500003 0.249983 0.000048 Pb
0.000140 0.750254 0.249927 Pb
0.249948 0.750580 0.499887 Pb
0.000150 0.250152 0.249964 Pb
0.000286 0.750670 0.750424 Pb
0.249945 0.750080 0.999968 Pb
0.499298 0.751717 0.249009 Pb
0.749867 0.749842 0.499672 Pb
0.000452 0.249576 0.750319 Pb
0.249986 0.249899 0.999952 Pb
0.750108 0.249549 0.500297 Pb
0.500121 0.749465 0.749810 Pb
0.750137 0.750460 0.000166 Pb
0.499985 0.248842 0.750524 Pb
0.750105 0.249555 0.000075 Pb
0.000053 0.000056 0.249948 Pb
0.249935 0.999906 0.499967 Pb
0.000182 0.500072 0.249824 Pb
0.000171 0.999855 0.750172 Pb
0.249994 0.000075 0.999976 Pb
0.499880 0.000526 0.249782 Pb
0.749968 1.000197 0.499836 Pb
0.000409 0.499642 0.750627 Pb
0.250046 0.500000 0.999924 Pb
0.752294 0.500549 0.503253 Pb
0.500030 0.999312 0.750270 Pb
0.749955 0.999910 0.000047 Pb
0.501435 0.500916 0.743628 Pb
0.750517 0.499907 0.000242 Pb
0.750107 0.000309 0.249912 Pb
0.000041 0.999771 0.499956 Pb
0.749890 0.499873 0.249846 Pb
0.000439 0.499514 0.499303 Pb
0.750246 0.999449 0.750207 Pb
0.000088 0.000037 0.000054 Pb
0.249929 0.000231 0.249879 Pb
0.499847 0.000276 0.499829 Pb
0.751964 0.501709 0.750810 Pb
0.000153 0.499820 0.000014 Pb
0.249949 0.999735 0.750075 Pb
0.500050 0.999923 0.999931 Pb
0.250503 0.500218 0.750392 Pb
0.500145 0.499467 0.997025 Pb
0.984511 0.125275 0.231040 Br
0.233352 0.124719 0.479942 Br
0.984456 0.625004 0.230783 Br
0.235632 0.624599 0.479463 Br
0.985454 0.124891 0.730868 Br
0.234357 0.125090 0.980286 Br
0.484277 0.125853 0.230110 Br
0.733975 0.125713 0.479040 Br
0.986267 0.625014 0.733387 Br
0.234550 0.624886 0.980371 Br
0.485483 0.626005 0.230317 Br
0.484411 0.124274 0.731932 Br
0.733583 0.124912 0.980892 Br
0.734724 0.624911 0.982421 Br
0.230454 0.875280 0.234219 Br
0.480039 0.875691 0.484091 Br
0.231413 0.375424 0.234857 Br
0.230402 0.874772 0.734095 Br
0.480860 0.874792 0.983742 Br
0.731519 0.875421 0.234110 Br
0.980292 0.874595 0.484205 Br
0.233703 0.374908 0.733957 Br
0.479445 0.375190 0.981826 Br
0.730674 0.374967 0.233450 Br
0.979008 0.375428 0.483961 Br
0.730231 0.874736 0.734400 Br
0.980856 0.875079 0.984536 Br
0.980241 0.375120 0.984203 Br
0.769903 0.125411 0.266089 Br
0.018727 0.125109 0.515803 Br
0.767564 0.624923 0.265939 Br
0.017557 0.624106 0.516530 Br
0.772499 0.123850 0.767568 Br
0.018966 0.125198 0.015670 Br
0.269681 0.125269 0.265684 Br
0.519429 0.126107 0.514706 Br
0.772129 0.625601 0.768038 Br
0.019166 0.624942 0.015286 Br
0.269401 0.124609 0.765845 Br
0.519622 0.125283 0.015019 Br
0.268680 0.624941 0.767693 Br
0.519866 0.624402 0.013341 Br
0.015736 0.875059 0.269658 Br
0.265689 0.874704 0.519763 Br
0.016193 0.375293 0.270169 Br
0.016433 0.875128 0.769985 Br
0.265637 0.874982 0.019216 Br
0.515693 0.875967 0.269148 Br
0.765459 0.874339 0.517983 Br
0.016469 0.374827 0.769464 Br
0.265228 0.375108 0.019379 Br
0.758640 0.376064 0.527188 Br
0.515746 0.873938 0.769383 Br
0.765842 0.875051 0.019943 Br
0.518617 0.375276 0.761499 Br
0.766330 0.374821 0.018360 Br
0.873936 0.982202 0.224554 Br
0.123907 0.981929 0.474573 Br
0.873873 0.482104 0.224954 Br
0.122487 0.482618 0.474984 Br
0.873956 0.981644 0.724481 Br
0.123927 0.982166 0.974561 Br
0.373951 0.982141 0.224420 Br
0.623903 0.982243 0.474571 Br
0.875406 0.482477 0.724635 Br
0.123971 0.482012 0.974424 Br
0.374066 0.482246 0.224198 Br
0.374003 0.981977 0.724559 Br
0.623910 0.982077 0.974521 Br
0.624061 0.481765 0.974019 Br
0.974574 0.017864 0.373992 Br
0.224664 0.017980 0.623843 Br
0.973690 0.518621 0.374277 Br
0.222922 0.518233 0.623466 Br
0.974599 0.017903 0.873894 Br
0.224535 0.018063 0.123910 Br
0.474551 0.018131 0.373902 Br
0.724953 0.017767 0.623785 Br
0.974520 0.517682 0.873892 Br
0.224737 0.517939 0.124051 Br
0.474624 0.017781 0.873837 Br
0.724572 0.018071 0.123953 Br
0.478568 0.517527 0.863259 Br
0.724511 0.517686 0.124803 Br
0.025629 0.767938 0.126264 Br
0.275718 0.767957 0.376169 Br
0.025478 0.268086 0.126181 Br
0.025124 0.767755 0.626007 Br
0.275670 0.768003 0.876031 Br
0.525141 0.768034 0.125423 Br
0.775283 0.767868 0.375900 Br
0.025254 0.267852 0.626034 Br
0.275961 0.268337 0.876031 Br
0.525869 0.268490 0.126104 Br
0.774563 0.269374 0.376662 Br
0.525784 0.768518 0.625610 Br
0.775607 0.768285 0.876113 Br
0.776345 0.266201 0.876272 Br
0.126182 0.232165 0.275581 Br
0.375044 0.230971 0.524293 Br
0.126235 0.732050 0.275590 Br
0.126326 0.232033 0.775780 Br
0.376204 0.232034 0.025563 Br
0.626143 0.232255 0.275671 Br
0.875541 0.232321 0.525511 Br
0.126277 0.732328 0.775606 Br
0.376207 0.731942 0.025194 Br
0.875788 0.731286 0.524552 Br
0.626972 0.233157 0.771563 Br
0.876065 0.232066 0.025829 Br
0.626346 0.731801 0.774702 Br
0.876168 0.732211 0.025794 Br
0.874197 0.767939 0.224370 Br
0.123844 0.767697 0.474336 Br
0.873867 0.268127 0.224610 Br
0.123284 0.267967 0.474524 Br
0.874197 0.768500 0.724839 Br
0.123966 0.767890 0.974497 Br
0.373738 0.768339 0.223946 Br
0.623771 0.768166 0.474354 Br
0.875107 0.266677 0.723261 Br
0.123905 0.268016 0.974431 Br
0.373989 0.268183 0.223982 Br
0.374043 0.767930 0.724614 Br
0.623999 0.767863 0.974627 Br
0.623962 0.268231 0.974118 Br
0.974345 0.232222 0.373958 Br
0.225296 0.232485 0.623789 Br
0.974157 0.731650 0.374001 Br
0.224107 0.732094 0.623806 Br
0.974345 0.232055 0.873874 Br
0.224446 0.232039 0.123846 Br
0.474367 0.232280 0.373513 Br
0.726944 0.226325 0.624244 Br
0.974608 0.732414 0.873996 Br
0.224540 0.732055 0.123938 Br
0.474763 0.232252 0.874209 Br
0.724540 0.231996 0.124178 Br
0.475790 0.729801 0.873196 Br
0.724775 0.732236 0.123831 Br
0.126157 0.018017 0.275472 Br
0.376109 0.018118 0.525447 Br
0.126315 0.518133 0.276219 Br
0.126187 0.017952 0.775439 Br
0.376171 0.017961 0.025398 Br
0.626122 0.018040 0.275348 Br
0.876021 0.017671 0.525176 Br
0.127237 0.517424 0.774984 Br
0.376456 0.518095 0.024663 Br
0.870039 0.518159 0.523899 Br
0.626179 0.017958 0.775403 Br
0.876078 0.017872 0.025635 Br
0.626774 0.518237 0.772194 Br
0.876107 0.517923 0.026038 Br
0.025522 0.982133 0.126162 Br
0.275376 0.982094 0.376163 Br
0.025561 0.482029 0.126375 Br
0.025319 0.982039 0.626033 Br
0.275555 0.981977 0.876035 Br
0.525493 0.982150 0.126086 Br
0.775477 0.982163 0.376124 Br
0.023378 0.482067 0.625292 Br
0.276733 0.481516 0.875735 Br
0.525408 0.482286 0.119818 Br
0.770813 0.478604 0.377971 Br
0.525410 0.982090 0.625995 Br
0.775460 0.981736 0.876100 Br
0.776269 0.483462 0.876626 Br
0.385403 0.374580 0.350103 Cs
0.637774 0.358219 0.622502 Cs
0.600625 0.632747 0.378963 Cs
0.350099 0.628305 0.637951 Cs
0.388302 0.368186 0.614009 Cs
0.646434 0.370687 0.360465 Cs
0.616585 0.629094 0.642353 Cs
0.364865 0.625793 0.394001 Cs
0.249876 0.249749 0.249826 Pb
0.499125 0.249899 0.498945 Pb
0.499761 0.250073 0.249391 Pb
0.249190 0.249112 0.499432 Pb
0.500057 0.500556 0.246861 Pb
0.247098 0.500379 0.500161 Pb
0.249849 0.500446 0.249925 Pb
0.491775 0.500711 0.500901 Pb
0.485579 0.624609 0.722784 Br
0.728687 0.623184 0.477804 Br
0.739873 0.374659 0.739750 Br
0.476014 0.376234 0.484751 Br
0.269780 0.625355 0.265166 Br
0.519247 0.624765 0.510601 Br
0.516283 0.376039 0.268015 Br
0.261273 0.375425 0.517238 Br
0.374941 0.481907 0.720940 Br
0.480371 0.518299 0.369913 Br
0.731631 0.525190 0.624610 Br
0.518868 0.263486 0.625722 Br
0.275522 0.267932 0.375969 Br
0.626030 0.736006 0.271894 Br
0.376157 0.731766 0.525261 Br
0.374055 0.265330 0.726830 Br
0.623389 0.270738 0.477449 Br
0.473922 0.734518 0.373430 Br
0.727357 0.733747 0.623664 Br
0.625969 0.517828 0.275854 Br
0.377340 0.514814 0.534525 Br
0.277298 0.483573 0.377048 Br
0.555051 0.486141 0.608105 Br
