Cs8 Pb8 Br23                            
   1.0000000000000000     
     8.4564889999999995    0.0000000000000000    8.0403009999999995
     0.0000000000000000   11.7298469999999995    0.0000000000000000
    -8.4564889999999995    0.0000000000000000    8.0403009999999995
   Cs   Pb   Br
     8     8    23
Direct
  0.2655189999999976  0.2387209999999982  0.1982950000000017
  0.7751299999999972  0.2325599999999994  0.7343699999999984
  0.7114970000000014  0.7728680000000026  0.2616140000000016
  0.2186710000000005  0.7524620000000013  0.7778539999999978
  0.2684319999999971  0.2445409999999981  0.7291650000000018
  0.8044269999999969  0.2478089999999966  0.2273479999999992
  0.7286039999999971  0.7553740000000033  0.7887529999999998
  0.2232500000000002  0.7573900000000009  0.2955510000000032
  0.0045229999999989  0.9959800000000030  0.0000519999999966
  0.4947980000000030  0.0032449999999997  0.4994909999999990
  0.5002759999999995  0.0000819999999990  0.0002959999999987
  0.9957399999999978  0.9998810000000020  0.5004649999999984
  0.5138230000000021  0.4952200000000033  0.9992000000000019
  0.9949420000000018  0.5029619999999966  0.4958629999999999
  0.0082710000000006  0.5008449999999982  0.9968989999999991
  0.4878780000000020  0.4982040000000012  0.5121809999999982
  0.4795879999999997  0.7466089999999994  0.9772450000000035
  0.9596560000000025  0.7502709999999979  0.4607799999999997
  0.9845529999999982  0.2487169999999992  0.9737549999999970
  0.4418030000000002  0.2536300000000011  0.4729480000000024
  0.0443420000000003  0.7482529999999983  0.0311069999999987
  0.5298159999999967  0.7479810000000029  0.5215680000000020
  0.5374729999999985  0.2497100000000003  0.0441750000000027
  0.0107380000000035  0.2530610000000024  0.5326450000000023
  0.2604419999999976  0.4671390000000031  0.9528880000000015
  0.9459239999999980  0.5308169999999990  0.7416979999999995
  0.5413819999999987  0.0311609999999973  0.7524579999999972
  0.0479770000000030  0.0284139999999979  0.2532470000000018
  0.7560760000000002  0.9774049999999974  0.0386039999999994
  0.2472520000000031  0.9633820000000028  0.5505029999999991
  0.2516650000000027  0.0297059999999973  0.9476170000000010
  0.7423509999999993  0.0402709999999971  0.4529830000000032
  0.4450590000000005  0.9685500000000005  0.2480109999999982
  0.9539990000000032  0.9633970000000005  0.7481739999999988
  0.7619929999999968  0.5383599999999973  0.0475139999999996
  0.2363380000000035  0.5377099999999970  0.5485910000000018
  0.5600809999999967  0.4640810000000002  0.7572230000000033
  0.0591220000000021  0.4679130000000029  0.2497529999999983
  0.6215309999999974  0.4918180000000021  0.3396600000000021

  0.00000000E+00  0.00000000E+00  0.00000000E+00
  0.00000000E+00  0.00000000E+00  0.00000000E+00
  0.00000000E+00  0.00000000E+00  0.00000000E+00
  0.00000000E+00  0.00000000E+00  0.00000000E+00
  0.00000000E+00  0.00000000E+00  0.00000000E+00
  0.00000000E+00  0.00000000E+00  0.00000000E+00
  0.00000000E+00  0.00000000E+00  0.00000000E+00
  0.00000000E+00  0.00000000E+00  0.00000000E+00
  0.00000000E+00  0.00000000E+00  0.00000000E+00
  0.00000000E+00  0.00000000E+00  0.00000000E+00
  0.00000000E+00  0.00000000E+00  0.00000000E+00
  0.00000000E+00  0.00000000E+00  0.00000000E+00
  0.00000000E+00  0.00000000E+00  0.00000000E+00
  0.00000000E+00  0.00000000E+00  0.00000000E+00
  0.00000000E+00  0.00000000E+00  0.00000000E+00
  0.00000000E+00  0.00000000E+00  0.00000000E+00
  0.00000000E+00  0.00000000E+00  0.00000000E+00
  0.00000000E+00  0.00000000E+00  0.00000000E+00
  0.00000000E+00  0.00000000E+00  0.00000000E+00
  0.00000000E+00  0.00000000E+00  0.00000000E+00
  0.00000000E+00  0.00000000E+00  0.00000000E+00
  0.00000000E+00  0.00000000E+00  0.00000000E+00
  0.00000000E+00  0.00000000E+00  0.00000000E+00
  0.00000000E+00  0.00000000E+00  0.00000000E+00
  0.00000000E+00  0.00000000E+00  0.00000000E+00
  0.00000000E+00  0.00000000E+00  0.00000000E+00
  0.00000000E+00  0.00000000E+00  0.00000000E+00
  0.00000000E+00  0.00000000E+00  0.00000000E+00
  0.00000000E+00  0.00000000E+00  0.00000000E+00
  0.00000000E+00  0.00000000E+00  0.00000000E+00
  0.00000000E+00  0.00000000E+00  0.00000000E+00
  0.00000000E+00  0.00000000E+00  0.00000000E+00
  0.00000000E+00  0.00000000E+00  0.00000000E+00
  0.00000000E+00  0.00000000E+00  0.00000000E+00
  0.00000000E+00  0.00000000E+00  0.00000000E+00
  0.00000000E+00  0.00000000E+00  0.00000000E+00
  0.00000000E+00  0.00000000E+00  0.00000000E+00
  0.00000000E+00  0.00000000E+00  0.00000000E+00
  0.00000000E+00  0.00000000E+00  0.00000000E+00
