Cs8 Pb8 Br23
1.0
8.456489 0.000000 8.040301
0.000000 11.729847 0.000000
-8.456489 0.000000 8.040301
Cs Pb Br
8 8 23
direct
0.265519 0.238721 0.198295 Cs
0.775130 0.232560 0.734370 Cs
0.711497 0.772868 0.261614 Cs
0.218671 0.752462 0.777854 Cs
0.268432 0.244541 0.729165 Cs
0.804427 0.247809 0.227348 Cs
0.728604 0.755374 0.788753 Cs
0.223250 0.757390 0.295551 Cs
0.004523 -0.004020 0.000052 Pb
0.494798 0.003245 0.499491 Pb
0.500276 0.000082 0.000296 Pb
-0.004260 -0.000119 0.500465 Pb
0.513823 0.495220 -0.000800 Pb
-0.005058 0.502962 0.495863 Pb
0.008271 0.500845 -0.003101 Pb
0.487878 0.498204 0.512181 Pb
0.479588 0.746609 0.977245 Br
0.959656 0.750271 0.460780 Br
0.984553 0.248717 0.973755 Br
0.441803 0.253630 0.472948 Br
0.044342 0.748253 0.031107 Br
0.529816 0.747981 0.521568 Br
0.537473 0.249710 0.044175 Br
0.010738 0.253061 0.532645 Br
0.260442 0.467139 0.952888 Br
0.945924 0.530817 0.741698 Br
0.541382 0.031161 0.752458 Br
0.047977 0.028414 0.253247 Br
0.756076 0.977405 0.038604 Br
0.247252 0.963382 0.550503 Br
0.251665 0.029706 0.947617 Br
0.742351 0.040271 0.452983 Br
0.445059 0.968550 0.248011 Br
0.953999 0.963397 0.748174 Br
0.761993 0.538360 0.047514 Br
0.236338 0.537710 0.548591 Br
0.560081 0.464081 0.757223 Br
0.059122 0.467913 0.249753 Br
0.621531 0.491818 0.339660 Br
