Cs Pb Br                                
   1.0000000000000000     
     8.4200180000000007    0.0000000000000000    8.0779809999999994
     0.0000000000000000   11.7638079999999992    0.0000000000000000
    -8.4200180000000007    0.0000000000000000    8.0779809999999994
   Cs   Pb   Br
     8     8    24
Selective dynamics
Direct
  0.2721250000000026  0.2500000000000000  0.2082359999999994   F   F   F
  0.7587902693027075  0.2313649415833652  0.6234611224589486   T   T   T
  0.7842094773814594  0.7828096012297294  0.2704306399064009   T   T   T
  0.3300826210806562  0.8000751990109691  0.6808891937947052   T   T   T
  0.2790681994937785  0.2764196267337766  0.6816215161470041   T   T   T
  0.7526096287548185  0.3430258832372388  0.1366940014967994   T   T   T
  0.8317737474659452  0.7312769146369504  0.7311368083422281   T   T   T
  0.2459100323032075  0.7302756403830273  0.1723955047916945   T   T   T
  0.0422722257733241  0.0322618238425534  0.9625052481228451   T   T   T
  0.5631397854735951  0.0361865620468080  0.4541277604314686   T   T   T
  0.5617900954152120  0.0413515078500382  0.9655125814102732   T   T   T
  0.0219160003628289  0.0750685105578839  0.4549917091960936   T   T   T
  0.5274296368519416  0.5591288532973095  0.9322111943438216   T   T   T
  0.0050532632003879  0.5279077421661142  0.3512099960576265   T   T   T
  0.0095015638713321  0.5338459521260077  0.8610312285046078   T   T   T
  0.5081033123507481  0.5331904215690884  0.4292660023196362   T   T   T
  0.6320783539667261  0.7944581990585604  0.9372914811910462   T   T   T
  0.0483726975395555  0.7745176691202857  0.4178798653492706   T   T   T
  0.0799767269336300  0.2943932343025395  0.9738718748811337   T   T   T
  0.4855905790211708  0.2772912106138321  0.4481442459399219   T   T   T
  0.0878219864630552  0.7993366729441789  0.8769108969027783   T   T   T
  0.5314783975902841  0.7810712110439013  0.4532555336491839   T   T   T
  0.4775447068462597  0.3093256548559964  0.9511460215613283   T   T   T
  0.9732974609133578  0.2829510620302855  0.2991368694027017   T   T   T
  0.2713939189900429  0.5663415157245737  0.9059231832613008   T   T   T
  0.7627782086643364  0.4949665464339361  0.3941332674435998   T   T   T
  0.5160632279830892  0.5891693929872233  0.1832175956249031   T   T   T
  0.0100277651246259  0.4653011563192422  0.5938859963939649   T   T   T
  0.4941485900328004  0.0607045597325993  0.7040711852749340   T   T   T
  0.9872144384808479  0.0035697487279620  0.1888311043105091   T   T   T
  0.7914269632672486  0.1437418210180823  0.9149761859171619   T   T   T
  0.3091798478097871  0.0100781229941873  0.4346768115231896   T   T   T
  0.3000812895161715  0.9758692165249272  0.0519785928538283   T   T   T
  0.8087003596122742  0.9479185119380489  0.5326830178619346   T   T   T
  0.6392426077302673  0.0323639203756088  0.2109048876806128   T   T   T
  0.0454949769284241  0.0928010542829014  0.7011728197882974   T   T   T
  0.7644588780642891  0.4593472034017836  0.8654083076993189   T   T   T
  0.2632893973566652  0.4812732333347043  0.4017529524711634   T   T   T
  0.5439297827805873  0.5657593231028102  0.6825390868785419   T   T   T
  0.9563691428593657  0.5737446705931148  0.1004271426262946   T   T   T

  0.00000000E+00  0.00000000E+00  0.00000000E+00
  0.00000000E+00  0.00000000E+00  0.00000000E+00
  0.00000000E+00  0.00000000E+00  0.00000000E+00
  0.00000000E+00  0.00000000E+00  0.00000000E+00
  0.00000000E+00  0.00000000E+00  0.00000000E+00
  0.00000000E+00  0.00000000E+00  0.00000000E+00
  0.00000000E+00  0.00000000E+00  0.00000000E+00
  0.00000000E+00  0.00000000E+00  0.00000000E+00
  0.00000000E+00  0.00000000E+00  0.00000000E+00
  0.00000000E+00  0.00000000E+00  0.00000000E+00
  0.00000000E+00  0.00000000E+00  0.00000000E+00
  0.00000000E+00  0.00000000E+00  0.00000000E+00
  0.00000000E+00  0.00000000E+00  0.00000000E+00
  0.00000000E+00  0.00000000E+00  0.00000000E+00
  0.00000000E+00  0.00000000E+00  0.00000000E+00
  0.00000000E+00  0.00000000E+00  0.00000000E+00
  0.00000000E+00  0.00000000E+00  0.00000000E+00
  0.00000000E+00  0.00000000E+00  0.00000000E+00
  0.00000000E+00  0.00000000E+00  0.00000000E+00
  0.00000000E+00  0.00000000E+00  0.00000000E+00
  0.00000000E+00  0.00000000E+00  0.00000000E+00
  0.00000000E+00  0.00000000E+00  0.00000000E+00
  0.00000000E+00  0.00000000E+00  0.00000000E+00
  0.00000000E+00  0.00000000E+00  0.00000000E+00
  0.00000000E+00  0.00000000E+00  0.00000000E+00
  0.00000000E+00  0.00000000E+00  0.00000000E+00
  0.00000000E+00  0.00000000E+00  0.00000000E+00
  0.00000000E+00  0.00000000E+00  0.00000000E+00
  0.00000000E+00  0.00000000E+00  0.00000000E+00
  0.00000000E+00  0.00000000E+00  0.00000000E+00
  0.00000000E+00  0.00000000E+00  0.00000000E+00
  0.00000000E+00  0.00000000E+00  0.00000000E+00
  0.00000000E+00  0.00000000E+00  0.00000000E+00
  0.00000000E+00  0.00000000E+00  0.00000000E+00
  0.00000000E+00  0.00000000E+00  0.00000000E+00
  0.00000000E+00  0.00000000E+00  0.00000000E+00
  0.00000000E+00  0.00000000E+00  0.00000000E+00
  0.00000000E+00  0.00000000E+00  0.00000000E+00
  0.00000000E+00  0.00000000E+00  0.00000000E+00
  0.00000000E+00  0.00000000E+00  0.00000000E+00
