Cs Pb Br 
 1.0000000000000000
     8.4200180000000007    0.0000000000000000    8.0779809999999994
     0.0000000000000000   11.7638079999999992    0.0000000000000000
    -8.4200180000000007    0.0000000000000000    8.0779809999999994
 Cs  Pb  Br 
   8   8  24
Selective dynamics
Cartesian
  0.5379465300020001  2.9409519999999998  3.8803470311410000   F   F   F
  1.1394738523490517  2.7217327507179276 11.1658004798742070   T   T   T
  4.3260270595590358  9.2088218494230905  8.5193628292891201   T   T   T
 -2.9537976567706234  9.4119310267268492  8.1666111120986624   T   T   T
 -3.3895061721798498  3.2517474163278202  7.7604332698416192   T   T   T
  5.1860206679938168  4.0352906294332893  7.1837778284035902   T   T   T
  0.8473648388866409  8.6026012186215048 12.6251617745178795   T   T   T
  0.6189936449084570  8.5908224205429473  3.3790641808474335   T   T   T
  0.6716393876226375  0.3795219014135841  0.0385923433612019   T   T   T
  0.9178832130711565  0.4256917680987631  8.2174679077376958   T   T   T
 -3.3993505990831738  0.4864511988583567 12.3375220046454253   T   T   T
 -3.6465052637388400  0.8830915450489251  3.8524514165705201   T   T   T
 -3.4082680001496675  6.5774844774497456 11.7909509012236029   T   T   T
 -2.9146459214791123  6.2102053205556373  2.8778878392842957   T   T   T
  1.2501228962538813  6.2800612823875097 -1.0458336433102360   T   T   T
  0.6638115695335285  6.2723497467778344  7.5720515138904210   T   T   T
 -2.5699000250650865  9.3458537177507051 12.6773397103775860   T   T   T
  5.3087609959131257  9.1112771521385518 11.8443603442172414   T   T   T
  0.8934047641693836  3.4631854848340939 16.5909499823362516   T   T   T
  0.3152987985780932  3.2620005617487173  7.5426921750740528   T   T   T
  1.7758751704971547  9.4032431478741216 -0.2848870980956111   T   T   T
  0.6586379223956473  9.1883717610479536  7.9546619866077393   T   T   T
  4.4322864052754767  3.6388476132002165  3.4629555589526957   T   T   T
 -2.7435736845896468  3.3285819671203525  2.2007193440408859   T   T   T
 -5.3427478266907835  6.6623328534128943  9.5103451829614336   T   T   T
  3.1039970406875574  5.8226914186719503  9.3455089226818355   T   T   T
  2.8025662156773139  6.9308756185782219  5.6487772067696982   T   T   T
  3.5039211832640551  5.4737134651175676 12.9563848911857047   T   T   T
 -1.7675520305454471  0.7141167854188688  9.6791965787601644   T   T   T
 -1.6976159553857384  0.0419938386439651  1.4220925498033046   T   T   T
  7.3797313214016942 13.4547591840271057  5.7063112174518453   T   T   T
 -1.0566866934122294 11.8823651039039664  6.0088599608152693   T   T   T
 -6.3309888282544806 -0.2838699036903048 10.9219140406470867   T   T   T
  2.3240709858499722 -0.6126766259150480 10.8356694369525037   T   T   T
  3.6066113128970279 12.1445309454259434  6.8674753151266970   T   T   T
  2.8991987609186864 12.8555017847816231 14.1095492751894884   T   T   T
  7.5700219853832706  5.4036723061555438  5.0880551591218852   T   T   T
 -1.1658656264080764  5.6616059124886924  5.3721994661045844   T   T   T
 -1.1670928354722512  6.6554840511913991  9.9073922261979614   T   T   T
 -1.2129709510815621  6.7494221458806480  0.4587993150237570   T   T   T
