Cs63 Pb64 Br192
1.0
16.840035 0.000000 16.155961
0.000000 23.527616 0.000000
-16.840035 0.000000 16.155961
Cs Pb Br Cs Pb Br Cs
56 56 168 6 8 24 1
Selective Dynamics 
Direct
0.887162 0.875491 0.353654 F F F
0.136452 0.875738 0.604094 F F F
0.887341 0.375039 0.353687 F F F
0.136661 0.374724 0.604092 F F F
0.885677 0.874854 0.853069 F F F
0.136684 0.875058 0.104013 F F F
0.386181 0.875472 0.352447 F F F
0.638760 0.875707 0.607910 F F F
0.885450 0.376126 0.852977 F F F
0.136824 0.375597 0.104131 F F F
0.386709 0.874719 0.854486 F F F
0.635741 0.874657 0.104247 F F F
0.386895 0.376384 0.854339 F F F
0.635786 0.376347 0.104167 F F F
0.103833 0.125284 0.385958 F F F
0.354239 0.125587 0.637379 F F F
0.107312 0.625235 0.386445 F F F
0.103994 0.125339 0.886306 F F F
0.354212 0.125343 0.136265 F F F
0.603409 0.125381 0.385904 F F F
0.853911 0.125547 0.636859 F F F
0.104043 0.625293 0.886166 F F F
0.354023 0.625363 0.135801 F F F
0.851274 0.625649 0.634977 F F F
0.603774 0.125349 0.886237 F F F
0.853625 0.125325 0.136219 F F F
0.603550 0.625522 0.884506 F F F
0.854532 0.625308 0.135424 F F F
0.896311 0.874977 0.114226 F F F
0.146848 0.874993 0.363969 F F F
0.896236 0.375659 0.114156 F F F
0.147093 0.375518 0.363899 F F F
0.900267 0.876574 0.616793 F F F
0.146592 0.874829 0.863693 F F F
0.397230 0.874603 0.114652 F F F
0.646318 0.874156 0.363754 F F F
0.900307 0.374443 0.616809 F F F
0.146605 0.375772 0.863639 F F F
0.397595 0.376842 0.114881 F F F
0.393547 0.878604 0.616943 F F F
0.647065 0.875716 0.864387 F F F
0.647094 0.374954 0.864277 F F F
0.114247 0.125289 0.146441 F F F
0.364192 0.125342 0.396484 F F F
0.113935 0.625279 0.147284 F F F
0.114389 0.125284 0.646716 F F F
0.364256 0.125263 0.896234 F F F
0.614039 0.125343 0.146449 F F F
0.864021 0.125323 0.396477 F F F
0.114507 0.625236 0.646230 F F F
0.365582 0.625664 0.893061 F F F
0.614362 0.625472 0.150121 F F F
0.871010 0.625481 0.384150 F F F
0.613881 0.125311 0.646750 F F F
0.864043 0.125327 0.896534 F F F
0.864998 0.625333 0.899651 F F F
0.749327 0.750283 0.250748 F F F
0.000696 0.751169 0.500897 F F F
0.749963 0.250726 0.250215 F F F
0.000179 0.250200 0.500068 F F F
0.749025 0.748273 0.749305 F F F
0.000095 0.750625 0.000020 F F F
0.252703 0.750366 0.250134 F F F
0.495773 0.754316 0.503063 F F F
0.750167 0.250858 0.750146 F F F
0.000065 0.250616 0.000072 F F F
0.251127 0.750191 0.749519 F F F
0.500533 0.750092 0.000699 F F F
0.250100 0.250568 0.750258 F F F
0.500076 0.250619 0.000124 F F F
0.000745 0.750887 0.249960 F F F
0.249696 0.751317 0.500153 F F F
0.000168 0.250442 0.249993 F F F
0.999887 0.749771 0.749920 F F F
0.250505 0.750205 0.000081 F F F
0.503309 0.748940 0.253755 F F F
0.754715 0.754318 0.503040 F F F
0.000261 0.250455 0.750300 F F F
0.250292 0.250696 0.000095 F F F
0.749912 0.250160 0.500030 F F F
0.503318 0.749539 0.749534 F F F
0.749854 0.750572 0.999830 F F F
0.500514 0.250926 0.750411 F F F
0.750074 0.250630 0.000152 F F F
0.000112 0.000532 0.249974 F F F
0.250075 0.000800 0.499971 F F F
0.000696 0.499992 0.250063 F F F
0.000261 0.000552 0.750288 F F F
0.250221 0.000325 0.000064 F F F
0.500265 0.000331 0.250055 F F F
0.750089 0.000884 0.500112 F F F
0.999884 0.500935 0.749864 F F F
0.250474 0.500696 0.000032 F F F
0.755285 0.496595 0.503115 F F F
0.500657 0.999998 0.750427 F F F
0.750088 0.000450 0.000107 F F F
0.503476 0.501924 0.749527 F F F
0.749790 0.500604 0.999681 F F F
0.750090 0.000417 0.250170 F F F
0.000185 0.000830 0.500086 F F F
0.749325 0.500928 0.250913 F F F
0.000876 0.499751 0.501038 F F F
0.750254 0.000513 0.750272 F F F
0.000121 0.000479 0.000083 F F F
0.250274 0.000432 0.250108 F F F
0.500247 0.000712 0.500404 F F F
0.748934 0.503570 0.749101 F F F
0.000146 0.500384 0.000014 F F F
0.250015 0.000531 0.750300 F F F
0.500163 0.000422 0.000130 F F F
0.251121 0.500750 0.749626 F F F
0.500619 0.500995 0.000536 F F F
0.984487 0.125706 0.230479 F F F
0.233824 0.125634 0.479988 F F F
0.983391 0.625613 0.233690 F F F
0.239181 0.625477 0.481599 F F F
0.984865 0.125704 0.731071 F F F
0.234582 0.125774 0.980874 F F F
0.484694 0.125932 0.231075 F F F
0.733842 0.125517 0.480225 F F F
0.984167 0.625624 0.729246 F F F
0.235706 0.625693 0.979326 F F F
0.481597 0.626138 0.230335 F F F
0.484999 0.125653 0.731453 F F F
0.734462 0.125772 0.981121 F F F
0.733940 0.625823 0.981405 F F F
0.231798 0.875739 0.234327 F F F
0.476571 0.877120 0.484622 F F F
0.232118 0.375806 0.234167 F F F
0.231611 0.875927 0.734068 F F F
0.481389 0.875888 0.985364 F F F
0.731564 0.876004 0.234069 F F F
0.982606 0.876299 0.484445 F F F
0.231744 0.375484 0.734129 F F F
0.481519 0.375647 0.985276 F F F
0.731231 0.375621 0.234315 F F F
0.982549 0.374943 0.484420 F F F
0.735064 0.875790 0.736553 F F F
0.980618 0.875857 0.984148 F F F
0.980345 0.375700 0.984020 F F F
0.769843 0.125814 0.266159 F F F
0.020717 0.125667 0.516171 F F F
0.770959 0.625781 0.262195 F F F
0.018524 0.625674 0.514476 F F F
0.769678 0.125992 0.766390 F F F
0.019792 0.125803 0.016021 F F F
0.269707 0.125766 0.265914 F F F
0.520002 0.125929 0.515888 F F F
0.774622 0.626088 0.770045 F F F
0.019408 0.625759 0.016173 F F F
0.268727 0.125741 0.766522 F F F
0.519652 0.125788 0.016100 F F F
0.271024 0.625683 0.763120 F F F
0.521588 0.625807 0.016269 F F F
0.016889 0.876054 0.268751 F F F
0.263914 0.876550 0.519229 F F F
0.017103 0.375250 0.269091 F F F
0.015804 0.875688 0.768748 F F F
0.266445 0.875750 0.019805 F F F
0.516629 0.876133 0.268112 F F F
0.769420 0.877134 0.523376 F F F
0.015793 0.375642 0.768824 F F F
0.266653 0.375729 0.020161 F F F
0.769533 0.373739 0.523669 F F F
0.515838 0.876508 0.771363 F F F
0.765956 0.875988 0.019736 F F F
0.515740 0.374927 0.770813 F F F
0.765887 0.375652 0.019540 F F F
0.874245 0.982291 0.224505 F F F
0.124072 0.982635 0.474268 F F F
0.875105 0.482299 0.225376 F F F
0.124159 0.482161 0.474333 F F F
0.874312 0.983814 0.724845 F F F
0.124075 0.982073 0.974485 F F F
0.374072 0.982566 0.224240 F F F
0.624282 0.981835 0.474633 F F F
0.874284 0.482518 0.724785 F F F
0.124145 0.482165 0.974733 F F F
0.376096 0.482897 0.225633 F F F
0.373947 0.984837 0.726768 F F F
0.624212 0.982556 0.974785 F F F
0.624443 0.481902 0.974908 F F F
0.974599 0.018415 0.373976 F F F
0.224835 0.018396 0.624088 F F F
0.977364 0.515378 0.374191 F F F
0.224550 0.517862 0.623841 F F F
0.974641 0.018330 0.874113 F F F
0.224513 0.018276 0.124049 F F F
0.474691 0.018371 0.374129 F F F
0.724801 0.018903 0.624059 F F F
0.974880 0.518382 0.873900 F F F
0.225468 0.519135 0.124082 F F F
0.474887 0.018504 0.874333 F F F
0.724664 0.018371 0.124160 F F F
0.475380 0.517450 0.875264 F F F
0.724728 0.517997 0.124418 F F F
0.026020 0.768200 0.125783 F F F
0.275888 0.768596 0.376170 F F F
0.025953 0.268462 0.126142 F F F
0.028604 0.768022 0.626391 F F F
0.275432 0.768193 0.876145 F F F
0.525102 0.767829 0.127647 F F F
0.777734 0.768955 0.376662 F F F
0.026194 0.267709 0.626207 F F F
0.275877 0.268693 0.876272 F F F
0.525903 0.268112 0.126170 F F F
0.775941 0.268805 0.376305 F F F
0.520541 0.778585 0.627031 F F F
0.776290 0.767886 0.876288 F F F
0.776033 0.267912 0.876286 F F F
0.126175 0.232256 0.275562 F F F
0.376248 0.231718 0.525732 F F F
0.127092 0.732185 0.274828 F F F
0.126023 0.232357 0.775956 F F F
0.376074 0.232233 0.025661 F F F
0.626283 0.232268 0.275673 F F F
0.876235 0.231650 0.525499 F F F
0.126169 0.732134 0.775780 F F F
0.376160 0.732186 0.025342 F F F
0.878249 0.742257 0.532196 F F F
0.626345 0.232333 0.775706 F F F
0.876258 0.232231 0.025772 F F F
0.627124 0.739657 0.782738 F F F
0.876450 0.733198 0.026364 F F F
0.875069 0.768164 0.225272 F F F
0.123861 0.768272 0.474314 F F F
0.874241 0.268271 0.224451 F F F
0.124049 0.268003 0.474305 F F F
0.874300 0.768189 0.724712 F F F
0.124093 0.768254 0.974628 F F F
0.375704 0.768094 0.225173 F F F
0.624556 0.775953 0.481627 F F F
0.874284 0.267422 0.724856 F F F
0.124057 0.268548 0.974428 F F F
0.374056 0.268171 0.224217 F F F
0.374549 0.768678 0.726971 F F F
0.624384 0.769269 0.975518 F F F
0.624160 0.268002 0.974740 F F F
0.974664 0.232063 0.373988 F F F
0.224807 0.232086 0.624135 F F F
0.977510 0.735624 0.374180 F F F
0.224417 0.732656 0.623887 F F F
0.974662 0.232188 0.874126 F F F
0.224551 0.232204 0.124050 F F F
0.474681 0.232262 0.374152 F F F
0.724667 0.231857 0.624078 F F F
0.974815 0.732151 0.873960 F F F
0.224847 0.732010 0.124101 F F F
0.474790 0.232097 0.874307 F F F
0.724701 0.232230 0.124169 F F F
0.475163 0.735087 0.875193 F F F
0.724749 0.732567 0.124332 F F F
0.126193 0.018274 0.275588 F F F
0.376256 0.019829 0.526077 F F F
0.127206 0.518304 0.274721 F F F
0.126038 0.018297 0.776060 F F F
0.376133 0.018319 0.025685 F F F
0.626318 0.018356 0.275731 F F F
0.876325 0.019701 0.525764 F F F
0.126254 0.518361 0.775843 F F F
0.376224 0.518341 0.025380 F F F
0.878965 0.509551 0.533190 F F F
0.626416 0.018325 0.775849 F F F
0.876320 0.018368 0.025874 F F F
0.627293 0.511103 0.783171 F F F
0.876415 0.517904 0.025967 F F F
0.025866 0.982223 0.126085 F F F
0.275717 0.982402 0.376053 F F F
0.025904 0.482291 0.125775 F F F
0.026617 0.983303 0.626207 F F F
0.275638 0.982115 0.876207 F F F
0.526083 0.982846 0.126232 F F F
0.775827 0.981984 0.376290 F F F
0.028900 0.482449 0.626408 F F F
0.275443 0.482344 0.876136 F F F
0.526330 0.484357 0.127538 F F F
0.778552 0.482162 0.376759 F F F
0.526195 0.982780 0.626226 F F F
0.776564 0.983349 0.876317 F F F
0.776703 0.483875 0.876292 F F F
0.386622 0.375370 0.352770 F F F
0.638581 0.375228 0.607997 F F F
0.360971 0.625504 0.634197 F F F
0.394924 0.373434 0.617056 F F F
0.646253 0.378092 0.363781 F F F
0.368228 0.625586 0.396576 F F F
0.250265 0.250646 0.250060 F F F
0.500285 0.250558 0.500316 F F F
0.500298 0.251017 0.250119 F F F
0.250117 0.250138 0.499994 F F F
0.503598 0.503018 0.253760 F F F
0.249651 0.499375 0.500156 F F F
0.252867 0.500771 0.250067 F F F
0.495972 0.497634 0.503040 F F F
0.484429 0.625835 0.738016 F F F
0.768108 0.625581 0.490557 F F F
0.735233 0.376226 0.736547 F F F
0.477522 0.374917 0.484896 F F F
0.271124 0.625754 0.267089 F F F
0.479953 0.626191 0.523019 F F F
0.516783 0.375979 0.267768 F F F
0.264476 0.374544 0.519528 F F F
0.374816 0.482935 0.726968 F F F
0.625426 0.475018 0.482140 F F F
0.471822 0.512554 0.376455 F F F
0.722599 0.520904 0.623235 F F F
0.525972 0.268066 0.626176 F F F
0.275823 0.268255 0.376088 F F F
0.627687 0.731920 0.278997 F F F
0.373593 0.745026 0.530900 F F F
0.373892 0.266822 0.726357 F F F
0.624202 0.269820 0.474183 F F F
0.471021 0.739447 0.376508 F F F
0.722604 0.730982 0.623305 F F F
0.627911 0.520692 0.280034 F F F
0.373949 0.506815 0.530525 F F F
0.521321 0.474452 0.626906 F F F
0.275860 0.482032 0.376146 F F F
0.622661 0.625493 0.493525 T T T
