Cs64 Pb64 Br191
1.0
16.840035 0.000000 16.155961
0.000000 23.527616 0.000000
-16.840035 0.000000 16.155961
Cs Pb Br Cs Pb Br
56 56 168 8 8 23
direct
0.885928 0.874656 0.353180 Cs
0.136504 0.875051 0.606791 Cs
0.888823 0.371974 0.353989 Cs
0.136378 0.375150 0.606186 Cs
0.886520 0.875012 0.853493 Cs
0.136098 0.874999 0.102996 Cs
0.385854 0.877487 0.353581 Cs
0.636668 0.875903 0.606426 Cs
0.885283 0.375704 0.852912 Cs
0.137854 0.375032 0.105879 Cs
0.384800 0.875142 0.850579 Cs
0.636390 0.874168 0.107869 Cs
0.390035 0.375587 0.853402 Cs
0.633047 0.375815 0.100233 Cs
0.104396 0.125127 0.385653 Cs
0.354262 0.125727 0.635386 Cs
0.103934 0.623894 0.388688 Cs
0.103922 0.124997 0.886062 Cs
0.351071 0.124788 0.134979 Cs
0.603407 0.121155 0.388909 Cs
0.854773 0.124441 0.637796 Cs
0.104026 0.624938 0.885565 Cs
0.369849 0.624815 0.140020 Cs
0.854380 0.624822 0.634322 Cs
0.604345 0.125227 0.885543 Cs
0.854856 0.125155 0.135309 Cs
0.603445 0.623190 0.885545 Cs
0.850688 0.625488 0.137085 Cs
0.896015 0.874637 0.114505 Cs
0.145925 0.875159 0.364053 Cs
0.897609 0.375364 0.113131 Cs
0.145884 0.375178 0.361784 Cs
0.899413 0.875081 0.614982 Cs
0.146637 0.874847 0.864094 Cs
0.393292 0.875468 0.112489 Cs
0.647027 0.879273 0.360826 Cs
0.887816 0.372882 0.611342 Cs
0.146404 0.375145 0.864556 Cs
0.396944 0.375137 0.116964 Cs
0.395871 0.875143 0.614784 Cs
0.646056 0.874673 0.864538 Cs
0.645047 0.376013 0.863640 Cs
0.113773 0.124724 0.144852 Cs
0.361507 0.123518 0.396609 Cs
0.115088 0.624456 0.143148 Cs
0.113990 0.124747 0.646347 Cs
0.364175 0.125137 0.896530 Cs
0.613881 0.124629 0.143538 Cs
0.865397 0.124618 0.396724 Cs
0.114134 0.624611 0.645568 Cs
0.367349 0.620935 0.896488 Cs
0.614257 0.631700 0.134677 Cs
0.863562 0.625187 0.392177 Cs
0.613739 0.125067 0.644373 Cs
0.864836 0.124823 0.898722 Cs
0.862721 0.625261 0.896683 Cs
0.753203 0.752312 0.249323 Pb
0.000053 0.749999 0.499914 Pb
0.749773 0.249774 0.249772 Pb
0.000275 0.249554 0.500561 Pb
0.750108 0.749699 0.750002 Pb
0.000092 0.749779 0.999785 Pb
0.249956 0.749684 0.249465 Pb
0.500674 0.751104 0.500335 Pb
0.750990 0.248066 0.752083 Pb
0.000116 0.250362 0.999696 Pb
0.250371 0.749323 0.750609 Pb
0.497510 0.752647 0.997132 Pb
0.250392 0.250483 0.750506 Pb
0.499868 0.250069 0.000297 Pb
0.003082 0.749323 0.249828 Pb
0.249699 0.750777 0.500736 Pb
0.999893 0.249668 0.249558 Pb
0.000012 0.749469 0.750040 Pb
0.250019 0.748926 0.999717 Pb
0.499608 0.752919 0.249312 Pb
0.750404 0.752516 0.501626 Pb
0.000278 0.250327 0.750196 Pb
0.250295 0.250656 0.999640 Pb
0.750314 0.247333 0.500889 Pb
0.500094 0.750173 0.749775 Pb
0.750378 0.751092 0.999431 Pb
0.499067 0.249307 0.749875 Pb
0.750103 0.250325 0.000278 Pb
0.000261 0.999913 0.249911 Pb
0.249756 0.999726 0.500405 Pb
0.004533 0.500954 0.249945 Pb
0.000187 0.000008 0.750245 Pb
0.249979 0.000006 0.999675 Pb
0.499585 0.000908 0.249402 Pb
0.750660 0.999401 0.500478 Pb
0.999898 0.499648 0.749965 Pb
0.250554 0.499911 0.000215 Pb
0.748113 0.500931 0.496220 Pb
0.500122 0.000009 0.750148 Pb
0.749916 0.000117 0.999936 Pb
0.500178 0.500482 0.746681 Pb
0.750155 0.500152 0.999990 Pb
0.751039 0.002252 0.249892 Pb
0.000210 0.999631 0.500005 Pb
0.751668 0.496473 0.249885 Pb
0.001299 0.498341 0.499869 Pb
0.750203 0.999608 0.750288 Pb
0.000021 0.999701 0.999959 Pb
0.249724 0.999485 0.249755 Pb
0.499511 0.998960 0.500176 Pb
0.750395 0.500368 0.748004 Pb
0.999874 0.500037 0.999488 Pb
0.250228 0.000552 0.750183 Pb
0.499901 0.000302 0.999809 Pb
0.250379 0.499652 0.750355 Pb
0.501116 0.499909 0.006806 Pb
0.984705 0.125116 0.230800 Br
0.232881 0.125217 0.483216 Br
0.984066 0.624126 0.228795 Br
0.234485 0.624673 0.482375 Br
0.985183 0.124986 0.731751 Br
0.234538 0.125227 0.981474 Br
0.482820 0.125280 0.226574 Br
0.735889 0.123761 0.480705 Br
0.984335 0.624538 0.729615 Br
0.234797 0.624197 0.978332 Br
0.503959 0.623830 0.244989 Br
0.484436 0.124849 0.730768 Br
0.733985 0.125650 0.981799 Br
0.732277 0.625581 0.984275 Br
0.230420 0.874099 0.233787 Br
0.478152 0.874978 0.484974 Br
0.236707 0.375437 0.234273 Br
0.233424 0.874819 0.735646 Br
0.477105 0.876157 0.981909 Br
0.739509 0.876561 0.233831 Br
0.981059 0.874198 0.483346 Br
0.230175 0.375072 0.735143 Br
0.482458 0.375401 0.987808 Br
0.719269 0.375567 0.237359 Br
0.978306 0.374437 0.485486 Br
0.731548 0.874575 0.735422 Br
0.980618 0.874711 0.984680 Br
0.980126 0.375230 0.983055 Br
0.772815 0.126741 0.265677 Br
0.019749 0.124621 0.515194 Br
0.753208 0.623846 0.267447 Br
0.015331 0.623444 0.516742 Br
0.770822 0.124112 0.768078 Br
0.017934 0.125087 0.015205 Br
0.267966 0.124377 0.265440 Br
0.514012 0.124395 0.517221 Br
0.770703 0.624583 0.763909 Br
0.019318 0.624729 0.014750 Br
0.270411 0.125370 0.765659 Br
0.518958 0.125121 0.014492 Br
0.270571 0.624454 0.766874 Br
0.513609 0.626261 0.012316 Br
0.015841 0.874358 0.268647 Br
0.265263 0.874947 0.520773 Br
0.016223 0.375446 0.267232 Br
0.016296 0.874564 0.768069 Br
0.264438 0.874554 0.016854 Br
0.514702 0.876640 0.268552 Br
0.768446 0.874976 0.522498 Br
0.016313 0.375117 0.770389 Br
0.266831 0.374980 0.021001 Br
0.750142 0.375345 0.516359 Br
0.516428 0.874935 0.768468 Br
0.765189 0.875574 0.019945 Br
0.519526 0.375034 0.760357 Br
0.766079 0.375809 0.019910 Br
0.874508 0.983523 0.223817 Br
0.123914 0.981854 0.474661 Br
0.868132 0.483020 0.226568 Br
0.123055 0.482060 0.478078 Br
0.874149 0.981952 0.724571 Br
0.123909 0.982245 0.974379 Br
0.374025 0.982126 0.224324 Br
0.624053 0.981839 0.475177 Br
0.874095 0.482213 0.721469 Br
0.124347 0.481777 0.976275 Br
0.381850 0.485695 0.224485 Br
0.374180 0.982518 0.724334 Br
0.623901 0.981806 0.974923 Br
0.624824 0.482717 0.975788 Br
0.974873 0.017596 0.373910 Br
0.224618 0.017819 0.624056 Br
0.977098 0.517984 0.373765 Br
0.226173 0.518019 0.624071 Br
0.974529 0.017619 0.873953 Br
0.224364 0.017463 0.124012 Br
0.474423 0.018208 0.373785 Br
0.724745 0.018207 0.624058 Br
0.973909 0.518344 0.873729 Br
0.229025 0.518343 0.125622 Br
0.474719 0.018144 0.873776 Br
0.724790 0.017987 0.124282 Br
0.480245 0.512968 0.871767 Br
0.722940 0.517668 0.125037 Br
0.026773 0.767246 0.126089 Br
0.274779 0.771324 0.376211 Br
0.025674 0.268140 0.126029 Br
0.025563 0.767676 0.625818 Br
0.276196 0.767149 0.876008 Br
0.521093 0.767823 0.123925 Br
0.772397 0.767778 0.376166 Br
0.025274 0.268044 0.625923 Br
0.277021 0.269375 0.876369 Br
0.525672 0.267922 0.126610 Br
0.776542 0.266031 0.376697 Br
0.527079 0.766937 0.625650 Br
0.775937 0.767681 0.875749 Br
0.775997 0.268000 0.877000 Br
0.125295 0.232457 0.274388 Br
0.373707 0.234184 0.523692 Br
0.127672 0.728092 0.276827 Br
0.126616 0.232144 0.775586 Br
0.376256 0.232251 0.025829 Br
0.626238 0.225853 0.276077 Br
0.876026 0.232062 0.526516 Br
0.126243 0.731936 0.775169 Br
0.375304 0.731644 0.025772 Br
0.875981 0.732236 0.523901 Br
0.626283 0.232673 0.773864 Br
0.876115 0.232708 0.025900 Br
0.626212 0.731498 0.775767 Br
0.875770 0.731558 0.025829 Br
0.877127 0.764624 0.224367 Br
0.124384 0.767569 0.474746 Br
0.873154 0.271117 0.224788 Br
0.122815 0.271336 0.474712 Br
0.874018 0.767647 0.724151 Br
0.123605 0.767438 0.974249 Br
0.374234 0.767816 0.224360 Br
0.624531 0.775895 0.475606 Br
0.874457 0.267646 0.724727 Br
0.124100 0.268072 0.974735 Br
0.374241 0.265517 0.225845 Br
0.374189 0.767068 0.723535 Br
0.623336 0.767818 0.976872 Br
0.624054 0.268113 0.974162 Br
0.974955 0.232243 0.373870 Br
0.223657 0.232101 0.624843 Br
0.975219 0.731391 0.373775 Br
0.224471 0.732006 0.623847 Br
0.974501 0.232082 0.873970 Br
0.224344 0.231996 0.123920 Br
0.474846 0.227732 0.373687 Br
0.726729 0.231512 0.625405 Br
0.974294 0.731774 0.873895 Br
0.225193 0.732010 0.124238 Br
0.474112 0.233656 0.874082 Br
0.724550 0.232223 0.124573 Br
0.472936 0.732067 0.872528 Br
0.728009 0.735164 0.123974 Br
0.126248 0.017861 0.275451 Br
0.375814 0.017553 0.525511 Br
0.126749 0.518229 0.272424 Br
0.126242 0.017824 0.775474 Br
0.376009 0.018026 0.025508 Br
0.626432 0.018214 0.274409 Br
0.876207 0.018107 0.525812 Br
0.126176 0.517929 0.774793 Br
0.376693 0.517089 0.027026 Br
0.866229 0.513664 0.522339 Br
0.626271 0.017988 0.775198 Br
0.876011 0.017653 0.025580 Br
0.626460 0.517929 0.771927 Br
0.876319 0.518961 0.026733 Br
0.025591 0.982040 0.126088 Br
0.274857 0.982373 0.376152 Br
0.025529 0.481722 0.126025 Br
0.025718 0.982254 0.625964 Br
0.275743 0.982572 0.876070 Br
0.525331 0.981624 0.125933 Br
0.775883 0.982235 0.376183 Br
0.022909 0.480561 0.625320 Br
0.276799 0.480409 0.876571 Br
0.527096 0.488379 0.130888 Br
0.780832 0.481163 0.374452 Br
0.525410 0.982106 0.625852 Br
0.775524 0.981810 0.876253 Br
0.773916 0.484435 0.874474 Br
0.381856 0.364498 0.357825 Cs
0.632267 0.370870 0.618439 Cs
0.617693 0.650293 0.377793 Cs
0.353313 0.624392 0.636621 Cs
0.402731 0.377130 0.610792 Cs
0.642700 0.357720 0.371346 Cs
0.612399 0.625103 0.643999 Cs
0.361200 0.638852 0.397986 Cs
0.249668 0.249095 0.249262 Pb
0.497779 0.247777 0.499637 Pb
0.500250 0.247417 0.249862 Pb
0.247356 0.250000 0.501144 Pb
0.501883 0.498680 0.275519 Pb
0.253270 0.499397 0.500099 Pb
0.257058 0.500460 0.249846 Pb
0.499714 0.502760 0.485245 Pb
0.483983 0.625265 0.730811 Br
0.735716 0.625535 0.481158 Br
0.735886 0.374320 0.737877 Br
0.493737 0.375897 0.479665 Br
0.275693 0.624917 0.264936 Br
0.527947 0.625818 0.502801 Br
0.513741 0.373823 0.274862 Br
0.267731 0.375493 0.520867 Br
0.374283 0.480918 0.723351 Br
0.432992 0.509804 0.373719 Br
0.721341 0.514758 0.619844 Br
0.522318 0.264052 0.625335 Br
0.269997 0.263361 0.376392 Br
0.627466 0.749753 0.263662 Br
0.376998 0.732376 0.527295 Br
0.374410 0.270513 0.722939 Br
0.623244 0.254551 0.481058 Br
0.476372 0.739349 0.373405 Br
0.724217 0.731696 0.623866 Br
0.380943 0.518306 0.523847 Br
0.526709 0.487258 0.616401 Br
0.269320 0.476840 0.376581 Br
0.592319 0.500787 0.382315 Br
