Cs64 Pb64 Br191
1.0
16.840035 0.000000 16.155961
0.000000 23.527616 0.000000
-16.840035 0.000000 16.155961
Cs Pb Br Cs Pb Br
56 56 168 8 8 23
direct
0.885320 0.874012 0.354061 Cs
0.135711 0.874721 0.603938 Cs
0.885732 0.375271 0.353763 Cs
0.135933 0.375076 0.604002 Cs
0.886412 0.875573 0.853923 Cs
0.135921 0.875158 0.103556 Cs
0.383010 0.875375 0.350293 Cs
0.638041 0.876894 0.607725 Cs
0.886318 0.374771 0.853908 Cs
0.135939 0.374908 0.103665 Cs
0.386126 0.875201 0.853632 Cs
0.636116 0.874982 0.103646 Cs
0.386025 0.374869 0.853492 Cs
0.636177 0.375045 0.103758 Cs
0.103501 0.124979 0.386155 Cs
0.352938 0.124983 0.636075 Cs
0.102613 0.625036 0.386318 Cs
0.103577 0.125036 0.886240 Cs
0.353592 0.125019 0.135836 Cs
0.605122 0.125052 0.385571 Cs
0.853896 0.125077 0.636032 Cs
0.103776 0.625036 0.885949 Cs
0.354426 0.625014 0.135645 Cs
0.855730 0.625781 0.637420 Cs
0.603909 0.125019 0.886209 Cs
0.854371 0.125033 0.136054 Cs
0.604001 0.624918 0.888330 Cs
0.853263 0.624946 0.137095 Cs
0.896234 0.874991 0.114115 Cs
0.145893 0.874756 0.364271 Cs
0.896380 0.374951 0.114029 Cs
0.146006 0.375006 0.364044 Cs
0.896192 0.874930 0.614192 Cs
0.146402 0.875201 0.864034 Cs
0.395862 0.875135 0.113707 Cs
0.648302 0.877553 0.361915 Cs
0.896070 0.375129 0.613973 Cs
0.146436 0.374855 0.863973 Cs
0.395697 0.374779 0.113585 Cs
0.394783 0.875139 0.616135 Cs
0.645985 0.875298 0.864690 Cs
0.645980 0.374853 0.864403 Cs
0.113720 0.125006 0.146183 Cs
0.363553 0.124999 0.396132 Cs
0.114114 0.625028 0.146453 Cs
0.113845 0.124977 0.646192 Cs
0.363962 0.125033 0.896667 Cs
0.613847 0.125053 0.146099 Cs
0.864386 0.125011 0.396981 Cs
0.113819 0.625050 0.646550 Cs
0.363643 0.625034 0.897082 Cs
0.614397 0.624922 0.144463 Cs
0.862200 0.625166 0.395900 Cs
0.614567 0.125122 0.646840 Cs
0.864289 0.125055 0.896891 Cs
0.863896 0.624977 0.896135 Cs
0.750356 0.750662 0.249612 Pb
-0.001566 0.749628 0.500002 Pb
0.750371 0.249417 0.249785 Pb
-0.000014 0.250134 0.500038 Pb
0.750571 0.750946 0.751823 Pb
0.000018 0.749989 0.000071 Pb
0.249288 0.750457 0.249454 Pb
0.499749 0.755518 0.499277 Pb
0.750365 0.249688 0.750391 Pb
0.000024 0.250177 0.000035 Pb
0.249734 0.750271 0.750442 Pb
0.499820 0.750283 -0.000069 Pb
0.249856 0.249721 0.750194 Pb
0.499989 0.250008 0.000064 Pb
0.000173 0.750064 0.249973 Pb
0.249669 0.749716 0.500117 Pb
1.000011 0.249996 0.250038 Pb
0.000128 0.750336 0.750344 Pb
0.249804 0.750251 0.999942 Pb
0.499772 0.750447 0.249671 Pb
0.747069 0.749928 0.500528 Pb
1.000007 0.249862 0.750069 Pb
0.249908 0.250022 0.999948 Pb
0.750275 0.250327 0.500148 Pb
0.500097 0.749869 0.750325 Pb
0.750381 0.750112 0.000392 Pb
0.499995 0.249742 0.750224 Pb
0.750142 0.249917 0.000093 Pb
1.000006 -0.000069 0.250100 Pb
0.249750 0.999795 0.500057 Pb
0.000186 0.499991 0.249996 Pb
0.000009 0.000199 0.750049 Pb
0.249901 0.000141 0.999944 Pb
0.499955 1.000082 0.249845 Pb
0.750344 -0.000244 0.500177 Pb
0.000170 0.499713 0.750258 Pb
0.249758 0.499951 0.999915 Pb
0.748700 0.501140 0.500274 Pb
0.499951 0.000427 0.750209 Pb
0.750149 0.000229 0.000122 Pb
0.500075 0.500449 0.750276 Pb
0.750340 0.499869 0.000225 Pb
0.750487 0.000515 0.249748 Pb
-0.000052 -0.000163 0.500019 Pb
0.750561 0.499155 0.249478 Pb
-0.000681 0.500277 0.499954 Pb
0.750442 0.000654 0.750488 Pb
0.000039 1.000031 0.000077 Pb
0.249695 0.000450 0.249850 Pb
0.500082 0.001266 0.500061 Pb
0.750549 0.499254 0.750806 Pb
0.000035 0.500190 0.000066 Pb
0.249818 0.000249 0.750192 Pb
0.499981 0.000158 0.000085 Pb
0.249748 0.499794 0.750404 Pb
0.499780 0.499721 -0.000072 Pb
0.984519 0.124991 0.231187 Br
0.234558 0.124949 0.481202 Br
0.984398 0.625007 0.230874 Br
0.232905 0.624918 0.480737 Br
0.984274 0.125053 0.730479 Br
0.234269 0.125104 0.980781 Br
0.484125 0.124963 0.231071 Br
0.734535 0.125885 0.481754 Br
0.985150 0.625042 0.732027 Br
0.234138 0.625127 0.981243 Br
0.486580 0.624817 0.230542 Br
0.484198 0.125194 0.729693 Br
0.734198 0.125083 0.980695 Br
0.734586 0.625019 0.981380 Br
0.230737 0.875276 0.234706 Br
0.476108 0.871214 0.483614 Br
0.231082 0.374767 0.234687 Br
0.231275 0.875020 0.734042 Br
0.480628 0.875022 0.984217 Br
0.732673 0.875286 0.232957 Br
0.980424 0.874613 0.484285 Br
0.231596 0.374989 0.734090 Br
0.480421 0.375084 0.984018 Br
0.732349 0.374472 0.233400 Br
0.980322 0.375209 0.484252 Br
0.732183 0.875486 0.736842 Br
0.980733 0.875036 0.984636 Br
0.980710 0.375211 0.984514 Br
0.770327 0.124896 0.266362 Br
0.018589 0.124921 0.515757 Br
0.764323 0.624823 0.266809 Br
0.018916 0.624890 0.516656 Br
0.770101 0.125289 0.766196 Br
0.018957 0.125136 0.015803 Br
0.269798 0.124998 0.265914 Br
0.518556 0.125003 0.515143 Br
0.767314 0.625145 0.764428 Br
0.019754 0.625108 0.015805 Br
0.269690 0.124987 0.766081 Br
0.519159 0.125083 0.015665 Br
0.267313 0.625029 0.767872 Br
0.517952 0.625002 0.016173 Br
0.015150 0.874904 0.270330 Br
0.266346 0.874478 0.519804 Br
0.015496 0.375095 0.269838 Br
0.015916 0.875155 0.769388 Br
0.265615 0.875138 0.019314 Br
0.515018 0.874843 0.271459 Br
0.765708 0.875128 0.519184 Br
0.015863 0.374941 0.769367 Br
0.265495 0.375086 0.019211 Br
0.765035 0.377086 0.518428 Br
0.515900 0.874982 0.767788 Br
0.765624 0.875077 0.019405 Br
0.515713 0.375474 0.767622 Br
0.765726 0.375037 0.019519 Br
0.873991 0.982153 0.224560 Br
0.124107 0.981958 0.474677 Br
0.874174 0.482303 0.224496 Br
0.124189 0.482278 0.475205 Br
0.873915 0.982145 0.724459 Br
0.123977 0.982102 0.974565 Br
0.374033 0.982062 0.224484 Br
0.623282 0.982325 0.474755 Br
0.873795 0.482282 0.724560 Br
0.123921 0.482001 0.974441 Br
0.373863 0.482155 0.224658 Br
0.374076 0.982387 0.724831 Br
0.623847 0.982185 0.974781 Br
0.623817 0.482154 0.974957 Br
0.974500 0.017844 0.374089 Br
0.224594 0.017913 0.623922 Br
0.973971 0.518748 0.374115 Br
0.224562 0.518065 0.623938 Br
0.974542 0.017982 0.873942 Br
0.224485 0.018045 0.124039 Br
0.474401 0.017792 0.374522 Br
0.724592 0.017969 0.624035 Br
0.974444 0.517901 0.874008 Br
0.224394 0.517622 0.123910 Br
0.474643 0.017951 0.873749 Br
0.724549 0.018260 0.124089 Br
0.474635 0.518234 0.873587 Br
0.724675 0.517883 0.123909 Br
0.025578 0.768039 0.126331 Br
0.275353 0.767570 0.376175 Br
0.025461 0.267968 0.126175 Br
0.023963 0.767890 0.626000 Br
0.275646 0.768178 0.876030 Br
0.524625 0.768218 0.126685 Br
0.773305 0.766616 0.376328 Br
0.025445 0.268037 0.626022 Br
0.275571 0.267975 0.876070 Br
0.525357 0.268221 0.126358 Br
0.775578 0.267768 0.376258 Br
0.528330 0.765721 0.625135 Br
0.776821 0.767938 0.876639 Br
0.775470 0.267979 0.876151 Br
0.126188 0.232029 0.275640 Br
0.376518 0.232312 0.525646 Br
0.126140 0.732149 0.275995 Br
0.126141 0.232003 0.775514 Br
0.376131 0.232115 0.025518 Br
0.626044 0.232046 0.275388 Br
0.875774 0.232758 0.525874 Br
0.126159 0.732416 0.775425 Br
0.376093 0.732244 0.025428 Br
0.874076 0.730584 0.523658 Br
0.626018 0.231996 0.775379 Br
0.876016 0.232127 0.025559 Br
0.626084 0.732612 0.778005 Br
0.876042 0.731721 0.026050 Br
0.874071 0.767422 0.224649 Br
0.124342 0.767340 0.475754 Br
0.873974 0.267871 0.224571 Br
0.124093 0.268037 0.474679 Br
0.873781 0.767758 0.725031 Br
0.123928 0.768058 0.974468 Br
0.373881 0.767759 0.224815 Br
0.622558 0.775416 0.475387 Br
0.873889 0.268038 0.724452 Br
0.123966 0.267977 0.974547 Br
0.374043 0.267946 0.224529 Br
0.374273 0.767398 0.724751 Br
0.623859 0.767799 0.974886 Br
0.623844 0.267952 0.974738 Br
0.974519 0.232158 0.374077 Br
0.224573 0.232056 0.623927 Br
0.974012 0.731179 0.374074 Br
0.224671 0.731930 0.623986 Br
0.974534 0.232095 0.873927 Br
0.224490 0.231999 0.124038 Br
0.474419 0.232210 0.374596 Br
0.724522 0.232394 0.623990 Br
0.974472 0.732109 0.874111 Br
0.224414 0.732420 0.123913 Br
0.474656 0.232122 0.873744 Br
0.724513 0.231849 0.124090 Br
0.474609 0.731845 0.873634 Br
0.724557 0.732028 0.123936 Br
0.126196 0.017961 0.275651 Br
0.376521 0.017766 0.525571 Br
0.126165 0.517864 0.275989 Br
0.126148 0.018059 0.775544 Br
0.376145 0.017938 0.025528 Br
0.626052 0.018270 0.275083 Br
0.875838 0.017718 0.525702 Br
0.126121 0.517607 0.775506 Br
0.376073 0.517821 0.025389 Br
0.874555 0.520378 0.524385 Br
0.626033 0.018023 0.775273 Br
0.876021 0.017926 0.025587 Br
0.626092 0.517619 0.777335 Br
0.876017 0.518233 0.025815 Br
0.025440 0.982038 0.126193 Br
0.275222 0.982286 0.376206 Br
0.025575 0.482070 0.126288 Br
0.025446 0.981971 0.626040 Br
0.275570 0.982036 0.876076 Br
0.525374 0.981861 0.126325 Br
0.775645 0.982301 0.376213 Br
0.024731 0.482071 0.625987 Br
0.275633 0.481912 0.876011 Br
0.524248 0.481358 0.126607 Br
0.774349 0.483397 0.376258 Br
0.525049 0.982166 0.625324 Br
0.775580 0.982395 0.876199 Br
0.775888 0.482064 0.876126 Br
0.382910 0.374659 0.350617 Cs
0.637754 0.374642 0.606372 Cs
0.608038 0.623800 0.374904 Cs
0.349677 0.625074 0.638926 Cs
0.395274 0.374895 0.616089 Cs
0.648399 0.373239 0.362781 Cs
0.622375 0.625684 0.656489 Cs
0.358248 0.625214 0.391297 Cs
0.249725 0.249513 0.249831 Pb
0.500072 0.248640 0.500163 Pb
0.499965 0.249962 0.249881 Pb
0.249735 0.250100 0.500060 Pb
0.499550 0.499238 0.249586 Pb
0.249766 0.500233 0.500093 Pb
0.249282 0.499632 0.249470 Pb
0.499443 0.495004 0.499013 Pb
0.485042 0.625271 0.727078 Br
0.731326 0.374962 0.735564 Br
0.477482 0.378866 0.483791 Br
0.266744 0.625038 0.262536 Br
0.515016 0.374963 0.272099 Br
0.266582 0.375399 0.519756 Br
0.374205 0.482757 0.724585 Br
0.622726 0.479957 0.473159 Br
0.476445 0.523971 0.375859 Br
0.724627 0.516112 0.624175 Br
0.525397 0.268189 0.625372 Br
0.275214 0.267666 0.376221 Br
0.625863 0.735792 0.272921 Br
0.378329 0.727649 0.524724 Br
0.374077 0.267653 0.724722 Br
0.623243 0.268205 0.475048 Br
0.477763 0.725446 0.376154 Br
0.724970 0.735532 0.624973 Br
0.625936 0.513306 0.272381 Br
0.377755 0.522779 0.524447 Br
0.527972 0.485254 0.624796 Br
0.275328 0.482492 0.376170 Br
0.719109 0.626731 0.487450 Br
