Cs Pb Br                                
   1.0000000000000000     
     8.4200180000000007    0.0000000000000000    8.0779809999999994
     0.0000000000000000   11.7638079999999992    0.0000000000000000
    -8.4200180000000007    0.0000000000000000    8.0779809999999994
   Cs   Pb   Br
     8     8    24
Selective dynamics
Direct
  0.2721250000000026  0.2500000000000000  0.2082359999999994   F   F   F
  0.7900534914192576  0.1999827468403481  0.7074918886842738   T   T   T
  0.7299187024775833  0.6661016446274388  0.2359017573091364   T   T   T
  0.3024701139554082  0.7133426981034106  0.7313871007170292   T   T   T
  0.2210788911700874  0.1688660141029459  0.7345377834424411   T   T   T
  0.7603694233079281  0.1695968002612886  0.2130044486034990   T   T   T
  0.7481914600208697  0.6790640822451408  0.7149649923817449   T   T   T
  0.2934129763621982  0.7556795787431199  0.2349722101519518   T   T   T
  0.9949871148396241  0.9868429692666254  0.9823189792612297   T   T   T
  0.5649546310646940  0.9223044105869320  0.4988066799425042   T   T   T
  0.5050978886846025  0.9695652859237640  0.9882602525157651   T   T   T
  0.0199660731209477  0.9847946526605753  0.4486933017873440   T   T   T
  0.5427685843268222  0.4739195557688447  0.9467916835943839   T   T   T
  0.0195575147610896  0.4788978891549149  0.4780129676542373   T   T   T
  0.0153993337959619  0.4827313923972767  0.9851668380496434   T   T   T
  0.4608718956673883  0.4114228244399740  0.4797765151146365   T   T   T
  0.5782646978369357  0.7149322634585928  0.9568357451353862   T   T   T
  0.0565578923277741  0.7306456764003499  0.5068339561192161   T   T   T
  0.0239649998995688  0.2273945491607208  0.9852889694793845   T   T   T
  0.5812898499513750  0.1787611663657245  0.4760889556745198   T   T   T
  0.9972718632076294  0.7219328584627291  0.0281637607701910   T   T   T
  0.5300330653855880  0.6784763793166491  0.5180417762972596   T   T   T
  0.4868401497001358  0.2175806652140082  0.9841672444381970   T   T   T
  0.0799017215741316  0.2195475918704730  0.4380302052623790   T   T   T
  0.2894448728534300  0.5210545711304917  0.0062336350518990   T   T   T
  0.7834243117338531  0.4459293729859013  0.5061044530499004   T   T   T
  0.5298183788500879  0.4390513659185302  0.2122116262143763   T   T   T
  0.1079049483717327  0.4850418684755340  0.7400787017793533   T   T   T
  0.5194514004806550  0.0075880074529877  0.7350653071475435   T   T   T
  0.0935167697351105  0.0019516114189599  0.2092241584677197   T   T   T
  0.7473527590658975  0.0104644751960876  0.9577685624068550   T   T   T
  0.3095793122576822  0.9456607965022741  0.5022556252537527   T   T   T
  0.2432279958876435  0.9568115362735057  0.9226465970301234   T   T   T
  0.8014028463050167  0.9267751187439686  0.3964806349446235   T   T   T
  0.4884333116170367  0.9815523779186464  0.2429558314377971   T   T   T
  0.9586233458184807  0.9368691503080626  0.7338195758845885   T   T   T
  0.7787637982979447  0.4353700060725458  0.8829082978952343   T   T   T
  0.2444097232213664  0.5019820875413927  0.3758613281590257   T   T   T
  0.4538181059513917  0.3718916012415789  0.7092950390622264   T   T   T
  0.9414374909764121  0.4199811934969873  0.2372447460429328   T   T   T

  0.00000000E+00  0.00000000E+00  0.00000000E+00
  0.00000000E+00  0.00000000E+00  0.00000000E+00
  0.00000000E+00  0.00000000E+00  0.00000000E+00
  0.00000000E+00  0.00000000E+00  0.00000000E+00
  0.00000000E+00  0.00000000E+00  0.00000000E+00
  0.00000000E+00  0.00000000E+00  0.00000000E+00
  0.00000000E+00  0.00000000E+00  0.00000000E+00
  0.00000000E+00  0.00000000E+00  0.00000000E+00
  0.00000000E+00  0.00000000E+00  0.00000000E+00
  0.00000000E+00  0.00000000E+00  0.00000000E+00
  0.00000000E+00  0.00000000E+00  0.00000000E+00
  0.00000000E+00  0.00000000E+00  0.00000000E+00
  0.00000000E+00  0.00000000E+00  0.00000000E+00
  0.00000000E+00  0.00000000E+00  0.00000000E+00
  0.00000000E+00  0.00000000E+00  0.00000000E+00
  0.00000000E+00  0.00000000E+00  0.00000000E+00
  0.00000000E+00  0.00000000E+00  0.00000000E+00
  0.00000000E+00  0.00000000E+00  0.00000000E+00
  0.00000000E+00  0.00000000E+00  0.00000000E+00
  0.00000000E+00  0.00000000E+00  0.00000000E+00
  0.00000000E+00  0.00000000E+00  0.00000000E+00
  0.00000000E+00  0.00000000E+00  0.00000000E+00
  0.00000000E+00  0.00000000E+00  0.00000000E+00
  0.00000000E+00  0.00000000E+00  0.00000000E+00
  0.00000000E+00  0.00000000E+00  0.00000000E+00
  0.00000000E+00  0.00000000E+00  0.00000000E+00
  0.00000000E+00  0.00000000E+00  0.00000000E+00
  0.00000000E+00  0.00000000E+00  0.00000000E+00
  0.00000000E+00  0.00000000E+00  0.00000000E+00
  0.00000000E+00  0.00000000E+00  0.00000000E+00
  0.00000000E+00  0.00000000E+00  0.00000000E+00
  0.00000000E+00  0.00000000E+00  0.00000000E+00
  0.00000000E+00  0.00000000E+00  0.00000000E+00
  0.00000000E+00  0.00000000E+00  0.00000000E+00
  0.00000000E+00  0.00000000E+00  0.00000000E+00
  0.00000000E+00  0.00000000E+00  0.00000000E+00
  0.00000000E+00  0.00000000E+00  0.00000000E+00
  0.00000000E+00  0.00000000E+00  0.00000000E+00
  0.00000000E+00  0.00000000E+00  0.00000000E+00
  0.00000000E+00  0.00000000E+00  0.00000000E+00
