Cs Pb Br 
 1.0000000000000000
     8.4200180000000007    0.0000000000000000    8.0779809999999994
     0.0000000000000000   11.7638079999999992    0.0000000000000000
    -8.4200180000000007    0.0000000000000000    8.0779809999999994
 Cs  Pb  Br 
   8   8  24
Selective dynamics
Cartesian
  0.5379465300020001  2.9409519999999998  3.8803470311410000   F   F   F
  0.6951701811373904  2.3525586371424354 12.0971431271140908   T   T   T
  4.1596315706233451  7.8358918558813917  7.8018793235684321   T   T   T
 -3.6114887490386658  8.3916265386904616  8.3514789368368678   T   T   T
 -4.3233331151932779  1.9865073676323108  7.7194533408031347   T   T   T
  4.6088229395808300  1.9951041956881119  7.8628956431969250   T   T   T
  0.2797674555978474  7.9883794832280426 11.8193500225357191   T   T   T
  0.4920723034241201  8.8896694738549495  4.2682854973427622   T   T   T
  0.1066659295964700 -0.1547767833975361 -0.1833209406690974   T   T   T
  0.5569669391119536 -0.9139959963021475  8.5930436588512737   T   T   T
 -4.0682358003809362 -0.3580281329277599 12.0633186908118830   T   T   T
 -3.6098909824611716 -0.1788727866743337  3.7858215259810879   T   T   T
 -3.4018817682486326  5.5750986615099807 12.0326395426223893   T   T   T
 -3.8602031655585116  5.6336628196237077  4.0193649031118408   T   T   T
  0.2545581583688755  5.6787594157342571  0.0045735254115434   T   T   T
 -0.1591772360289267  4.8398991135295271  7.5985399899773949   T   T   T
 -3.1875750325317678  8.4103258803323175 12.4005122114219848   T   T   T
  4.6286854379069196  8.5951754532038152 12.6290496473096301   T   T   T
  0.3256528723065181  2.6750258165733176 16.2307153888177425   T   T   T
  0.8857934234272173  2.1029120389824612  8.5414859016487199   T   T   T
 -0.2601103335309395  8.4926795358467064  0.2054684872160204   T   T   T
  0.1009668699669812  7.9814658588162066  8.4663286576920456   T   T   T
  4.2325149104177813  2.5595771700898324  3.8047887807089582   T   T   T
 -3.0154482789677788  2.5827157176265647  4.1838442642787124   T   T   T
 -6.0353742799088304  6.1295859323014161 10.4664663689676232   T   T   T
  2.3350382018763329  5.2458275253665390 10.4167888608766468   T   T   T
  2.6742545741141996  5.1649159708032979  5.9941042823406514   T   T   T
  3.0971036171802551  5.7059394127074450 14.9279768142311404   T   T   T
 -1.8154729751854850  0.0892638627794782 10.1339621284031409   T   T   T
 -0.9742582958615192  0.0229583820232547  2.4455354659448294   T   T   T
  6.6483131483846654 11.8869100770275260  5.6959566375518280   T   T   T
 -1.6223380236005367 11.1245720431798620  6.5579872003535522   T   T   T
 -5.7207168511544895 -0.5080607950934852  9.4179128099724654   T   T   T
  3.4094523082543269 -0.8614034439187780  9.6764800017484252   T   T   T
  2.0669248017038431 11.5467937157784029  5.9081476012032805   T   T   T
  1.8928517893112367 11.0211488053471705 13.6715217651018790   T   T   T
  7.5431194387898328  5.1216091603962726  5.3449746212786406   T   T   T
 -1.1068248797039668  5.9052208972761724  5.0105377679008649   T   T   T
 -2.1511203753780519  4.3748613938184784  9.3956058862702356   T   T   T
 -2.4907024121907040  4.9405781239093676  1.4433917156797313   T   T   T
