Cs4 Pb4 Br12                            
   1.0000000000000000     
     8.3329158731686412    0.0000000000000000    0.0000000000000000
     0.0000000000000000   11.8814458624860091    0.0000000000000000
     0.0000000000000000    0.0000000000000000    8.1587603592473741
   Cs   Pb   Br
     4     4    12
Direct
  0.0595259716709933  0.2500000000000000  0.4845223231909230
  0.4404740283290067  0.7500000000000000  0.9845223231909230
  0.5595259716709933  0.2500000000000000  0.0154776768090770
  0.9404740283290067  0.7500000000000000  0.5154776768090770
  0.0000000000000000  0.0000000000000000  0.0000000000000000
  0.5000000000000000  0.0000000000000000  0.5000000000000000
  0.5000000000000000  0.5000000000000000  0.5000000000000000
  0.0000000000000000  0.5000000000000000  0.0000000000000000
  0.5025158078369714  0.7500000000000000  0.4379424872616440
  0.9974841921630286  0.2500000000000000  0.9379424872616440
  0.0025158078369714  0.7500000000000000  0.0620575127383560
  0.4974841921630286  0.2500000000000000  0.5620575127383560
  0.3002627468594810  0.4670806402721013  0.1977268710406506
  0.1997372531405190  0.5329193597278987  0.6977268710406506
  0.8002627468594810  0.0329193597278987  0.3022731289593494
  0.6997372531405190  0.9670806402721013  0.8022731289593494
  0.3002627468594810  0.0329193597278987  0.1977268710406506
  0.1997372531405190  0.9670806402721013  0.6977268710406506
  0.6997372531405190  0.5329193597278987  0.8022731289593494
  0.8002627468594810  0.4670806402721013  0.3022731289593494

  0.00000000E+00  0.00000000E+00  0.00000000E+00
  0.00000000E+00  0.00000000E+00  0.00000000E+00
  0.00000000E+00  0.00000000E+00  0.00000000E+00
  0.00000000E+00  0.00000000E+00  0.00000000E+00
  0.00000000E+00  0.00000000E+00  0.00000000E+00
  0.00000000E+00  0.00000000E+00  0.00000000E+00
  0.00000000E+00  0.00000000E+00  0.00000000E+00
  0.00000000E+00  0.00000000E+00  0.00000000E+00
  0.00000000E+00  0.00000000E+00  0.00000000E+00
  0.00000000E+00  0.00000000E+00  0.00000000E+00
  0.00000000E+00  0.00000000E+00  0.00000000E+00
  0.00000000E+00  0.00000000E+00  0.00000000E+00
  0.00000000E+00  0.00000000E+00  0.00000000E+00
  0.00000000E+00  0.00000000E+00  0.00000000E+00
  0.00000000E+00  0.00000000E+00  0.00000000E+00
  0.00000000E+00  0.00000000E+00  0.00000000E+00
  0.00000000E+00  0.00000000E+00  0.00000000E+00
  0.00000000E+00  0.00000000E+00  0.00000000E+00
  0.00000000E+00  0.00000000E+00  0.00000000E+00
  0.00000000E+00  0.00000000E+00  0.00000000E+00
