Cs64 Pb64 Br191
1.0
16.840035 0.000000 16.155961
0.000000 23.527616 0.000000
-16.840035 0.000000 16.155961
Cs Pb Br Cs Pb Br
56 56 168 8 8 23
direct
0.886013 0.875114 0.353593 Cs
0.135633 0.875223 0.603775 Cs
0.886700 0.374815 0.353711 Cs
0.138223 0.375132 0.603814 Cs
0.886314 0.875161 0.853972 Cs
0.135697 0.875171 0.103127 Cs
0.385539 0.875388 0.353607 Cs
0.636068 0.874752 0.603985 Cs
0.886086 0.374861 0.853750 Cs
0.135995 0.374811 0.103576 Cs
0.386169 0.875195 0.853624 Cs
0.636201 0.875074 0.103474 Cs
0.385748 0.374831 0.854011 Cs
0.636235 0.374915 0.103440 Cs
0.103491 0.125140 0.386084 Cs
0.352473 0.124095 0.636685 Cs
0.103759 0.625442 0.385434 Cs
0.103435 0.124924 0.886146 Cs
0.353817 0.124921 0.135894 Cs
0.603930 0.125111 0.385045 Cs
0.853705 0.125036 0.636157 Cs
0.103924 0.625007 0.886187 Cs
0.353473 0.625059 0.135181 Cs
0.853896 0.624967 0.636221 Cs
0.603969 0.124831 0.886479 Cs
0.853571 0.124932 0.135961 Cs
0.603916 0.624831 0.887195 Cs
0.853667 0.625092 0.136447 Cs
0.896573 0.875094 0.113874 Cs
0.146158 0.875445 0.363794 Cs
0.896378 0.374916 0.113958 Cs
0.146321 0.375176 0.363835 Cs
0.896263 0.875166 0.613944 Cs
0.146153 0.875192 0.864125 Cs
0.395892 0.874976 0.113881 Cs
0.647046 0.874542 0.364673 Cs
0.898792 0.374858 0.614115 Cs
0.146435 0.374916 0.863704 Cs
0.396100 0.374961 0.113358 Cs
0.395687 0.875802 0.614754 Cs
0.646265 0.875138 0.864167 Cs
0.645843 0.374841 0.864190 Cs
0.113597 0.124919 0.146129 Cs
0.363601 0.124973 0.396401 Cs
0.114421 0.625070 0.146758 Cs
0.113957 0.125075 0.646453 Cs
0.363835 0.125063 0.896399 Cs
0.614030 0.124923 0.146466 Cs
0.863989 0.125078 0.396416 Cs
0.113704 0.625174 0.647275 Cs
0.363907 0.624931 0.897189 Cs
0.613945 0.624987 0.145717 Cs
0.864681 0.625037 0.395440 Cs
0.614585 0.124869 0.646743 Cs
0.864132 0.124961 0.896741 Cs
0.863765 0.625045 0.896156 Cs
0.750335 0.750440 0.249678 Pb
0.000106 0.750464 0.500001 Pb
0.750218 0.249695 0.249803 Pb
0.000180 0.250349 0.500072 Pb
0.750401 0.750775 0.750301 Pb
0.000007 0.749825 0.000030 Pb
0.249156 0.751461 0.249265 Pb
0.498641 0.752104 0.499820 Pb
0.750444 0.249495 0.750311 Pb
0.999980 0.250076 -0.000004 Pb
0.249467 0.750574 0.750444 Pb
0.499963 0.750111 0.999983 Pb
0.249344 0.249473 0.750421 Pb
0.500084 0.249741 0.000144 Pb
0.000041 0.750290 0.249910 Pb
0.249665 0.750588 0.499920 Pb
0.999914 0.249783 0.249891 Pb
-0.000008 0.750212 0.750161 Pb
0.249789 0.750298 0.999898 Pb
0.500104 0.750234 0.249504 Pb
0.750765 0.749997 0.500232 Pb
0.999867 0.249885 0.750044 Pb
0.249845 0.249798 0.999945 Pb
0.750149 0.250269 0.500063 Pb
0.499989 0.749768 0.750424 Pb
0.750184 0.750037 0.000132 Pb
0.500514 0.248926 0.750544 Pb
0.750124 0.249853 0.000056 Pb
0.999947 0.000090 0.249941 Pb
0.249513 1.000530 0.499883 Pb
0.000172 0.499794 0.249891 Pb
0.999959 0.000101 0.750052 Pb
0.249916 0.000108 0.999975 Pb
0.500083 0.999734 0.249830 Pb
0.750160 0.000488 0.500036 Pb
0.000044 0.500055 0.750231 Pb
0.249803 0.499727 0.999861 Pb
0.752862 0.499547 0.499874 Pb
0.500116 0.000055 0.750299 Pb
0.750096 -0.000054 0.000087 Pb
0.499730 0.499981 0.749894 Pb
0.750247 0.499883 0.000066 Pb
0.750078 0.000026 0.249944 Pb
0.999954 0.000392 0.500009 Pb
0.750535 0.499776 0.249392 Pb
1.002808 0.500695 0.500312 Pb
0.750196 -0.000045 0.750166 Pb
0.999975 0.999997 0.000002 Pb
0.249861 0.000462 0.249880 Pb
0.500282 0.001534 0.500250 Pb
0.750559 0.499589 0.750336 Pb
0.000023 0.500081 0.000038 Pb
0.249752 0.999917 0.750217 Pb
0.499985 -0.000029 0.000052 Pb
0.249887 0.500468 0.750239 Pb
0.499987 0.499680 0.999975 Pb
0.984100 0.124970 0.230513 Br
0.234399 0.126279 0.481002 Br
0.984730 0.624972 0.231229 Br
0.235561 0.626071 0.477131 Br
0.984265 0.125020 0.730369 Br
0.234213 0.124978 0.980345 Br
0.484560 0.124905 0.231439 Br
0.733386 0.125646 0.480363 Br
0.984071 0.625055 0.730883 Br
0.234438 0.624979 0.981488 Br
0.484147 0.625016 0.230731 Br
0.484498 0.124415 0.729423 Br
0.734412 0.124913 0.980830 Br
0.734447 0.624952 0.980985 Br
0.230012 0.875686 0.233737 Br
0.483946 0.869547 0.485273 Br
0.231619 0.374582 0.234639 Br
0.230249 0.874932 0.734120 Br
0.480447 0.874888 0.984369 Br
0.730095 0.875023 0.234626 Br
0.980565 0.875365 0.484415 Br
0.232958 0.375138 0.734080 Br
0.480625 0.374841 0.984073 Br
0.731814 0.374920 0.233293 Br
0.982899 0.376033 0.483759 Br
0.729789 0.875024 0.734026 Br
0.980900 0.874899 0.984456 Br
0.980550 0.375098 0.984449 Br
0.769369 0.124949 0.265968 Br
0.019334 0.125568 0.515808 Br
0.767651 0.625004 0.266536 Br
0.020895 0.625578 0.515942 Br
0.769696 0.124735 0.765933 Br
0.019047 0.125022 0.015588 Br
0.270317 0.124986 0.266060 Br
0.518908 0.124555 0.514938 Br
0.767596 0.625089 0.764868 Br
0.019884 0.624947 0.015912 Br
0.268316 0.124718 0.766305 Br
0.519489 0.124856 0.015934 Br
0.266923 0.625324 0.768916 Br
0.518624 0.624923 0.015707 Br
0.015477 0.875101 0.269568 Br
0.265393 0.875757 0.519434 Br
0.015738 0.374856 0.269276 Br
0.015581 0.875035 0.769359 Br
0.265608 0.875092 0.019323 Br
0.515672 0.874666 0.271420 Br
0.764636 0.875244 0.519179 Br
0.015446 0.375058 0.769149 Br
0.265626 0.374881 0.019129 Br
0.766821 0.375298 0.520312 Br
0.515928 0.874393 0.767848 Br
0.765769 0.874905 0.019546 Br
0.514360 0.374620 0.767756 Br
0.765715 0.374967 0.019310 Br
0.873840 0.981978 0.224597 Br
0.124033 0.982310 0.474509 Br
0.874064 0.482196 0.224604 Br
0.134067 0.484101 0.476493 Br
0.873771 0.981963 0.724510 Br
0.123928 0.982144 0.974567 Br
0.374002 0.981766 0.224772 Br
0.623369 0.982315 0.474655 Br
0.873836 0.482166 0.724218 Br
0.123918 0.481930 0.974370 Br
0.373910 0.482791 0.224202 Br
0.373955 0.982203 0.724770 Br
0.623810 0.982024 0.974624 Br
0.623858 0.482086 0.974644 Br
0.974512 0.018056 0.373997 Br
0.224532 0.017962 0.623813 Br
0.976137 0.517985 0.374466 Br
0.226612 0.520592 0.623566 Br
0.974499 0.017933 0.873874 Br
0.224599 0.018180 0.123967 Br
0.474281 0.017433 0.374641 Br
0.724445 0.017920 0.623841 Br
0.974491 0.518000 0.873813 Br
0.224026 0.516743 0.123952 Br
0.474614 0.017939 0.873755 Br
0.724455 0.017913 0.123975 Br
0.474840 0.517931 0.872988 Br
0.724607 0.518070 0.124046 Br
0.025491 0.767930 0.126180 Br
0.275625 0.768358 0.376037 Br
0.025438 0.267918 0.126134 Br
0.025340 0.768007 0.626083 Br
0.275558 0.768257 0.875897 Br
0.525175 0.768091 0.126450 Br
0.775188 0.767826 0.376275 Br
0.025952 0.268291 0.626016 Br
0.275270 0.267947 0.876180 Br
0.525429 0.268083 0.126367 Br
0.775478 0.268170 0.376241 Br
0.528010 0.763445 0.624940 Br
0.775580 0.768059 0.876051 Br
0.775446 0.267821 0.876108 Br
0.126247 0.231996 0.275490 Br
0.376622 0.230504 0.526514 Br
0.126041 0.733008 0.275783 Br
0.125842 0.232100 0.775689 Br
0.376156 0.232027 0.025378 Br
0.626070 0.232307 0.275528 Br
0.875745 0.232317 0.525360 Br
0.126082 0.732328 0.775625 Br
0.376159 0.732273 0.025372 Br
0.875987 0.731966 0.525498 Br
0.626162 0.231877 0.775611 Br
0.876056 0.232075 0.025545 Br
0.625957 0.732058 0.776316 Br
0.876050 0.731912 0.025537 Br
0.873828 0.767953 0.224462 Br
0.124132 0.768219 0.474369 Br
0.873926 0.267869 0.224609 Br
0.124351 0.268495 0.474879 Br
0.873722 0.767969 0.724478 Br
0.123929 0.767948 0.974397 Br
0.373908 0.767645 0.225499 Br
0.623058 0.763534 0.474383 Br
0.873787 0.267924 0.724288 Br
0.123927 0.268009 0.974508 Br
0.374022 0.267624 0.223894 Br
0.374030 0.768374 0.724696 Br
0.623805 0.767909 0.974657 Br
0.623847 0.267908 0.974664 Br
0.974637 0.232099 0.374045 Br
0.224867 0.232203 0.623923 Br
0.974651 0.732229 0.374048 Br
0.223747 0.732445 0.623688 Br
0.974461 0.232100 0.873806 Br
0.224429 0.231869 0.124079 Br
0.474334 0.232176 0.374450 Br
0.724410 0.232139 0.623873 Br
0.974474 0.732013 0.873878 Br
0.224203 0.733195 0.123738 Br
0.475000 0.231823 0.873819 Br
0.724465 0.231961 0.124029 Br
0.474650 0.731903 0.873511 Br
0.724526 0.732028 0.123977 Br
0.126175 0.018150 0.275555 Br
0.376601 0.017396 0.525417 Br
0.126263 0.516497 0.276493 Br
0.126060 0.017896 0.775476 Br
0.376162 0.017947 0.025417 Br
0.625983 0.017767 0.275584 Br
0.875863 0.018065 0.525460 Br
0.126135 0.517683 0.775469 Br
0.376124 0.517721 0.025344 Br
0.881033 0.518035 0.524687 Br
0.625981 0.018078 0.775436 Br
0.876038 0.017886 0.025496 Br
0.625971 0.517515 0.775939 Br
0.876073 0.518121 0.025597 Br
0.025412 0.982112 0.126169 Br
0.275514 0.982114 0.376187 Br
0.025628 0.482082 0.126211 Br
0.025304 0.982177 0.626021 Br
0.275502 0.981957 0.876030 Br
0.525319 0.981834 0.126399 Br
0.775300 0.982039 0.376249 Br
0.026511 0.481881 0.626083 Br
0.275575 0.482024 0.875905 Br
0.525401 0.481880 0.125743 Br
0.776108 0.482068 0.376173 Br
0.525478 0.982077 0.625567 Br
0.775384 0.981919 0.876039 Br
0.775615 0.482186 0.876120 Br
0.382576 0.374331 0.346792 Cs
0.638855 0.374900 0.606875 Cs
0.610151 0.624899 0.381239 Cs
0.350020 0.629526 0.640426 Cs
0.396242 0.370146 0.621246 Cs
0.649463 0.375166 0.362935 Cs
0.619280 0.624679 0.655759 Cs
0.360104 0.627870 0.383375 Cs
0.249741 0.249238 0.249795 Pb
0.499673 0.249268 0.499954 Pb
0.500184 0.250038 0.249827 Pb
0.250293 0.251008 0.500154 Pb
0.500241 0.499667 0.249508 Pb
0.255612 0.502994 0.500307 Pb
0.249369 0.499406 0.249354 Pb
0.499857 0.492384 0.497112 Pb
0.484298 0.624657 0.728786 Br
0.735602 0.624887 0.480804 Br
0.731676 0.374779 0.735946 Br
0.467021 0.376769 0.484240 Br
0.263062 0.625275 0.259875 Br
0.516518 0.375145 0.271127 Br
0.269938 0.376942 0.521424 Br
0.373958 0.483694 0.723663 Br
0.627614 0.484945 0.473099 Br
0.477758 0.521769 0.373692 Br
0.724931 0.517657 0.623739 Br
0.525583 0.268133 0.625513 Br
0.275324 0.267907 0.376279 Br
0.625985 0.732895 0.274102 Br
0.376804 0.735847 0.527717 Br
0.373970 0.264163 0.727858 Br
0.622819 0.271384 0.475503 Br
0.477076 0.728570 0.375320 Br
0.724566 0.732073 0.623918 Br
0.626195 0.516988 0.273916 Br
0.525810 0.482245 0.623649 Br
0.277418 0.483533 0.376503 Br
0.394070 0.552222 0.517570 Br
