Cs64 Pb64 Br191
1.0
16.840035 0.000000 16.155961
0.000000 23.527616 0.000000
-16.840035 0.000000 16.155961
Cs Pb Br Cs Pb Br
56 56 168 8 8 23
direct
0.884324 0.872302 0.355399 Cs
0.135763 0.872997 0.603535 Cs
0.885771 0.375152 0.352966 Cs
0.136820 0.375088 0.604050 Cs
0.886128 0.876027 0.853590 Cs
0.136256 0.875217 0.103538 Cs
0.385134 0.874964 0.353558 Cs
0.638233 0.881233 0.618433 Cs
0.886753 0.374798 0.853967 Cs
0.136098 0.374877 0.103501 Cs
0.386513 0.875202 0.853305 Cs
0.636131 0.874993 0.103368 Cs
0.386046 0.374921 0.852983 Cs
0.636214 0.375113 0.104187 Cs
0.103530 0.124757 0.386252 Cs
0.353648 0.124797 0.635803 Cs
0.103970 0.625260 0.388708 Cs
0.103677 0.124988 0.886530 Cs
0.352610 0.124949 0.135759 Cs
0.603795 0.124887 0.386176 Cs
0.854304 0.124949 0.635908 Cs
0.103717 0.625055 0.885757 Cs
0.355289 0.624997 0.135953 Cs
0.860593 0.627575 0.639177 Cs
0.603661 0.124752 0.885701 Cs
0.856615 0.125137 0.136050 Cs
0.603425 0.624992 0.888829 Cs
0.853042 0.624868 0.137935 Cs
0.895812 0.874459 0.114506 Cs
0.146147 0.872270 0.366652 Cs
0.896613 0.374890 0.114057 Cs
0.146566 0.375240 0.364364 Cs
0.897992 0.874294 0.615642 Cs
0.146803 0.875200 0.863973 Cs
0.396451 0.875015 0.114049 Cs
0.646589 0.883638 0.354804 Cs
0.898430 0.375069 0.615364 Cs
0.146796 0.374870 0.864138 Cs
0.395529 0.374131 0.112999 Cs
0.395937 0.872958 0.614641 Cs
0.646373 0.875543 0.865721 Cs
0.646008 0.374976 0.864193 Cs
0.114059 0.124900 0.146400 Cs
0.363992 0.124715 0.396524 Cs
0.113950 0.625010 0.146774 Cs
0.114073 0.124817 0.646051 Cs
0.364015 0.125013 0.896748 Cs
0.613360 0.125148 0.145209 Cs
0.866121 0.124684 0.398641 Cs
0.114825 0.625336 0.646342 Cs
0.363862 0.625086 0.896686 Cs
0.614410 0.624780 0.142873 Cs
0.865940 0.625434 0.390534 Cs
0.613555 0.125175 0.645839 Cs
0.864599 0.125252 0.897536 Cs
0.864181 0.624860 0.896882 Cs
0.750042 0.750936 0.249590 Pb
0.996273 0.748409 0.500266 Pb
0.750756 0.248172 0.249659 Pb
0.000254 0.250094 0.500100 Pb
0.750676 0.750274 0.753082 Pb
0.000113 0.750034 0.000094 Pb
0.249450 0.750076 0.249594 Pb
0.512300 0.749328 0.500548 Pb
0.750208 0.250567 0.750376 Pb
0.000189 0.250115 0.000103 Pb
0.250269 0.750104 0.750493 Pb
0.499777 0.750360 0.999985 Pb
0.250104 0.249630 0.750169 Pb
0.499958 0.250085 -0.000025 Pb
0.000914 0.750093 0.249916 Pb
0.253480 0.749135 0.500324 Pb
0.000330 0.249870 0.250165 Pb
0.000477 0.750519 0.750875 Pb
0.249953 0.750216 0.999991 Pb
0.499506 0.750596 0.249634 Pb
0.734644 0.753658 0.501150 Pb
0.000225 0.249634 0.750200 Pb
0.249997 0.250003 -0.000031 Pb
0.749916 0.247889 0.499937 Pb
0.500205 0.750102 0.750420 Pb
0.750486 0.749881 0.000583 Pb
0.499954 0.250127 0.750236 Pb
0.750071 0.249920 0.000083 Pb
0.000528 0.999472 0.250439 Pb
0.250131 0.999578 0.500137 Pb
0.000977 0.499818 0.250036 Pb
0.000400 0.000358 0.750159 Pb
0.250044 -0.000083 0.000017 Pb
0.499477 0.000675 0.249518 Pb
0.750052 0.997891 0.500277 Pb
0.000536 0.499418 0.750569 Pb
0.249860 0.500223 -0.000050 Pb
0.749772 0.496706 0.500603 Pb
0.499644 0.000530 0.750203 Pb
0.750297 0.000578 0.000258 Pb
0.500131 0.500730 0.750260 Pb
0.750412 0.499637 -0.000226 Pb
0.751868 0.001221 0.249326 Pb
1.000168 0.999213 0.500123 Pb
0.750781 0.497868 0.247888 Pb
1.000125 0.499756 0.500015 Pb
0.751655 0.002140 0.751175 Pb
0.000138 -0.000257 0.000114 Pb
0.249754 -0.000121 0.250145 Pb
0.499529 0.996586 0.499367 Pb
0.750299 0.499729 0.750439 Pb
0.000192 0.500239 0.000109 Pb
0.250051 0.000005 0.750058 Pb
0.499881 0.000173 0.000114 Pb
0.250121 0.499781 0.750301 Pb
0.499545 0.499466 0.999726 Pb
0.985468 0.124668 0.231972 Br
0.234702 0.124730 0.481081 Br
0.983625 0.624706 0.231868 Br
0.235669 0.624332 0.480816 Br
0.984515 0.125054 0.730151 Br
0.234481 0.125006 0.981021 Br
0.483134 0.124786 0.229730 Br
0.735877 0.125370 0.483059 Br
0.987656 0.624924 0.733766 Br
0.234357 0.625209 0.980573 Br
0.488757 0.623972 0.231258 Br
0.484487 0.125570 0.730484 Br
0.733978 0.125254 0.980298 Br
0.734320 0.624856 0.981619 Br
0.229442 0.874767 0.235543 Br
0.475730 0.871572 0.485464 Br
0.230214 0.374839 0.234636 Br
0.231110 0.874788 0.734007 Br
0.480843 0.875061 0.984194 Br
0.735804 0.875461 0.230515 Br
0.980587 0.873819 0.484823 Br
0.231347 0.374782 0.734510 Br
0.480125 0.374910 0.983441 Br
0.734706 0.373359 0.233034 Br
0.979173 0.374897 0.484091 Br
0.737432 0.875957 0.741532 Br
0.979962 0.874936 0.984816 Br
0.980804 0.375170 0.984738 Br
0.774125 0.124462 0.267133 Br
0.017663 0.124607 0.515686 Br
0.760596 0.624179 0.267379 Br
0.018126 0.624089 0.517585 Br
0.771421 0.126393 0.766355 Br
0.018779 0.125001 0.016059 Br
0.269498 0.124807 0.266076 Br
0.516553 0.125806 0.514396 Br
0.769575 0.625147 0.764669 Br
0.020091 0.625103 0.015778 Br
0.270265 0.124774 0.765807 Br
0.519128 0.125130 0.015064 Br
0.268420 0.624827 0.766747 Br
0.517276 0.624824 0.016255 Br
0.014960 0.874460 0.272158 Br
0.266042 0.874202 0.519452 Br
0.016029 0.374891 0.270236 Br
0.015919 0.875263 0.769570 Br
0.265975 0.875061 0.019812 Br
0.513421 0.875066 0.268547 Br
0.768335 0.871129 0.521554 Br
0.016065 0.374701 0.769504 Br
0.265263 0.375135 0.018969 Br
0.766786 0.380332 0.519180 Br
0.517223 0.875517 0.767756 Br
0.765520 0.875140 0.018767 Br
0.516099 0.375802 0.767572 Br
0.765829 0.375020 0.019909 Br
0.874410 0.982039 0.224564 Br
0.123769 0.981904 0.474774 Br
0.875038 0.482448 0.224673 Br
0.124684 0.482731 0.476131 Br
0.874435 0.982695 0.724079 Br
0.123916 0.981996 0.974577 Br
0.374016 0.982023 0.224527 Br
0.624062 0.985451 0.473306 Br
0.873821 0.482455 0.724616 Br
0.123826 0.482073 0.974467 Br
0.373316 0.481129 0.223860 Br
0.374228 0.981789 0.724417 Br
0.623982 0.982505 0.975183 Br
0.623937 0.482067 0.975329 Br
0.974514 0.017407 0.374186 Br
0.224698 0.017824 0.623949 Br
0.974948 0.517926 0.374244 Br
0.225047 0.517896 0.623838 Br
0.974600 0.018014 0.873943 Br
0.224537 0.017831 0.124022 Br
0.474642 0.017434 0.373926 Br
0.725113 0.018119 0.623967 Br
0.974483 0.517709 0.874043 Br
0.224510 0.517920 0.124020 Br
0.474675 0.017930 0.873825 Br
0.725754 0.019568 0.124444 Br
0.474539 0.518101 0.873458 Br
0.725197 0.517884 0.123572 Br
0.025799 0.768162 0.126511 Br
0.275601 0.767563 0.376104 Br
0.025461 0.267881 0.126254 Br
0.022400 0.766888 0.626222 Br
0.275834 0.768254 0.876277 Br
0.525168 0.767975 0.126068 Br
0.767955 0.765970 0.376896 Br
0.025697 0.268169 0.626059 Br
0.275658 0.267881 0.876108 Br
0.525454 0.268236 0.126301 Br
0.775554 0.267575 0.376634 Br
0.529671 0.767952 0.626709 Br
0.778106 0.767060 0.876764 Br
0.775456 0.268337 0.876046 Br
0.126257 0.232009 0.275803 Br
0.376537 0.233011 0.525585 Br
0.126354 0.730754 0.276652 Br
0.126174 0.231862 0.775548 Br
0.376196 0.232066 0.025558 Br
0.626351 0.231279 0.274999 Br
0.875581 0.233506 0.526466 Br
0.126512 0.732549 0.775150 Br
0.376117 0.732293 0.025600 Br
0.870227 0.727913 0.518541 Br
0.626263 0.231963 0.775302 Br
0.876069 0.232246 0.025430 Br
0.626683 0.734098 0.780158 Br
0.876154 0.731210 0.026691 Br
0.874453 0.765989 0.226212 Br
0.125320 0.764161 0.478766 Br
0.874170 0.267794 0.224594 Br
0.123863 0.268081 0.474762 Br
0.874060 0.767034 0.725716 Br
0.123827 0.768148 0.974496 Br
0.373663 0.767605 0.225289 Br
0.623038 0.806373 0.481633 Br
0.873908 0.268200 0.724573 Br
0.123915 0.267885 0.974577 Br
0.374068 0.268002 0.224741 Br
0.374802 0.767692 0.725316 Br
0.624068 0.767579 0.975180 Br
0.623947 0.268042 0.974809 Br
0.974592 0.232292 0.374147 Br
0.224635 0.232003 0.623885 Br
0.975240 0.731552 0.374057 Br
0.226882 0.731666 0.624166 Br
0.974676 0.232111 0.873889 Br
0.224564 0.232109 0.124032 Br
0.474591 0.232274 0.374340 Br
0.724448 0.232506 0.623596 Br
0.974484 0.732145 0.874446 Br
0.224531 0.732094 0.123978 Br
0.474685 0.232190 0.873820 Br
0.724847 0.231481 0.124161 Br
0.474533 0.732090 0.873746 Br
0.724856 0.731862 0.123796 Br
0.126260 0.017762 0.275834 Br
0.376383 0.017524 0.525076 Br
0.126534 0.518917 0.276826 Br
0.126369 0.018161 0.775670 Br
0.376178 0.017919 0.025606 Br
0.626465 0.020749 0.272911 Br
0.875498 0.016030 0.526399 Br
0.126257 0.517465 0.775452 Br
0.376038 0.517827 0.025361 Br
0.873969 0.523015 0.522968 Br
0.626652 0.017371 0.773991 Br
0.876116 0.017854 0.025649 Br
0.626412 0.517891 0.778422 Br
0.876030 0.518369 0.025991 Br
0.025360 0.981834 0.126304 Br
0.275388 0.981969 0.376240 Br
0.025818 0.482117 0.126381 Br
0.025958 0.981599 0.626195 Br
0.275698 0.981934 0.876153 Br
0.525526 0.981950 0.126078 Br
0.775993 0.982140 0.376686 Br
0.024963 0.481935 0.626081 Br
0.275698 0.481992 0.876117 Br
0.523007 0.480139 0.125865 Br
0.774349 0.484764 0.376357 Br
0.524015 0.984157 0.625610 Br
0.776320 0.984191 0.876549 Br
0.775962 0.481970 0.875559 Br
0.385501 0.374904 0.355733 Cs
0.635300 0.374644 0.604011 Cs
0.602282 0.619257 0.362967 Cs
0.350697 0.625316 0.636294 Cs
0.397001 0.375588 0.614597 Cs
0.646962 0.370862 0.360283 Cs
0.619346 0.627137 0.657741 Cs
0.362395 0.627047 0.392762 Cs
0.249925 0.249687 0.250022 Pb
0.500036 0.248248 0.500278 Pb
0.499530 0.249324 0.249674 Pb
0.249918 0.249803 0.500085 Pb
0.497592 0.497339 0.248824 Pb
0.251993 0.500131 0.500206 Pb
0.249302 0.499805 0.249763 Pb
0.504557 0.501709 0.499843 Pb
0.483279 0.625710 0.729384 Br
0.730093 0.375682 0.733731 Br
0.483878 0.382344 0.486774 Br
0.269358 0.624792 0.263792 Br
0.513694 0.373831 0.271554 Br
0.267051 0.374879 0.519620 Br
0.374373 0.482378 0.724486 Br
0.625504 0.475647 0.471236 Br
0.476029 0.520697 0.374378 Br
0.725944 0.520447 0.622718 Br
0.525512 0.267578 0.625729 Br
0.275446 0.267850 0.376289 Br
0.625865 0.738784 0.271318 Br
0.382730 0.727127 0.522089 Br
0.374104 0.267984 0.724422 Br
0.624148 0.267392 0.474588 Br
0.482920 0.727600 0.375405 Br
0.725111 0.735984 0.624748 Br
0.625997 0.506228 0.267119 Br
0.379848 0.521203 0.523517 Br
0.528830 0.485973 0.625417 Br
0.275636 0.482346 0.376217 Br
0.599741 0.647104 0.507417 Br
