Cs7 Pb8 Br24
1.0
8.420018 0.000000 8.077981
0.000000 11.763808 0.000000
-8.420018 0.000000 8.077981
Cs Pb Br Cs
6 8 24 1
direct
0.270836 0.250000 0.199708 Cs
0.779217 0.250001 0.712601 Cs
0.207712 0.750000 0.777570 Cs
0.282523 0.250000 0.728129 Cs
0.795096 0.249999 0.229103 Cs
0.242266 0.750001 0.294391 Cs
-0.000863 -0.003603 -0.000479 Pb
0.499847 0.001664 0.500154 Pb
0.506267 -0.001021 -0.006207 Pb
-0.000623 -0.002740 0.500851 Pb
0.506262 0.501014 -0.006207 Pb
-0.000630 0.502737 0.500854 Pb
-0.000852 0.503588 -0.000480 Pb
0.499850 0.498350 0.500156 Pb
0.463906 0.750005 0.974557 Br
0.973022 0.750000 0.446466 Br
0.971304 0.249993 0.971288 Br
0.448411 0.250002 0.463330 Br
0.046906 0.749993 0.042033 Br
0.521444 0.750004 0.517344 Br
0.531967 0.250004 0.040253 Br
0.028646 0.249999 0.531235 Br
0.249430 0.465731 0.950908 Br
0.746845 0.461678 0.450439 Br
0.451618 0.527583 0.245427 Br
0.952323 0.534388 0.747088 Br
0.540638 0.056934 0.748271 Br
0.053306 0.036196 0.251470 Br
0.753995 0.977789 0.064702 Br
0.250181 0.963408 0.552715 Br
0.249429 0.034270 0.950906 Br
0.746845 0.038325 0.450439 Br
0.451617 0.972419 0.245425 Br
0.952321 0.965608 0.747089 Br
0.753995 0.522212 0.064703 Br
0.250184 0.536595 0.552715 Br
0.540639 0.443069 0.748272 Br
0.053305 0.463802 0.251470 Br
0.702942 0.750001 0.269547 Cs
