Cs8 Pb8 Br23
1.0
8.456489 0.000000 8.040301
0.000000 11.729847 0.000000
-8.456489 0.000000 8.040301
Cs Pb Br
8 8 23
direct
0.267827 0.244169 0.199355 Cs
0.768763 0.242261 0.712469 Cs
0.724865 0.753455 0.264356 Cs
0.212435 0.755891 0.773683 Cs
0.293707 0.249930 0.732197 Cs
0.787133 0.246501 0.227930 Cs
0.733259 0.753292 0.803763 Cs
0.220459 0.753622 0.285014 Cs
-0.000495 0.001481 -0.000706 Pb
0.499233 0.004633 0.495700 Pb
0.498837 0.000383 -0.000693 Pb
0.001571 0.000633 0.501531 Pb
0.499951 0.501771 0.001027 Pb
0.003074 0.497178 0.495035 Pb
0.000163 0.498377 0.004193 Pb
0.500715 0.492847 0.501099 Pb
0.471939 0.750650 0.962834 Br
0.971493 0.748038 0.471918 Br
0.963477 0.251517 0.970075 Br
0.459649 0.247955 0.464820 Br
0.026541 0.749150 0.024878 Br
0.527409 0.251570 0.032981 Br
0.030145 0.250838 0.545610 Br
0.246589 0.469895 0.949039 Br
0.748926 0.463820 0.454509 Br
0.549040 0.537094 0.151018 Br
0.546948 0.027895 0.749207 Br
0.045778 0.034236 0.253056 Br
0.751246 0.970698 0.048080 Br
0.254812 0.963071 0.546425 Br
0.246483 0.032699 0.947769 Br
0.747205 0.029837 0.449561 Br
0.448349 0.963206 0.247456 Br
0.948472 0.966636 0.748100 Br
0.752820 0.531400 0.052506 Br
0.254217 0.537202 0.551907 Br
0.554604 0.471551 0.755396 Br
0.052728 0.463880 0.252061 Br
0.693259 0.645721 0.582118 Br
