Cs4 Pb4 Br12                            
   1.0000000000000000     
    -5.8048125591732784   -5.9005327169720996    0.0000000000000000
    -5.8048125591732784    5.9005327169720996    0.0000000000000000
     0.0000000000000000    0.0000000000000000  -11.7577053640714091
   Cs   Pb   Br
     4     4    12
Direct
  0.5193261984267465  0.9806738015732535  0.7500000000000000
  0.4806738015732535  0.0193261984267465  0.2500000000000000
  0.0213506937000858  0.4786493062999142  0.7500000000000000
  0.9786493062999142  0.5213506937000858  0.2500000000000000
  0.0000000000000000  0.0000000000000000  0.0000000000000000
  0.0000000000000000  0.0000000000000000  0.5000000000000000
  0.5000000000000000  0.5000000000000000  0.0000000000000000
  0.5000000000000000  0.5000000000000000  0.5000000000000000
  0.7913143797890569  0.2913143797890569  0.0000000000000000
  0.7913143797890569  0.2913143797890569  0.5000000000000000
  0.2086856202109431  0.7086856202109431  0.0000000000000000
  0.2086856202109431  0.7086856202109431  0.5000000000000000
  0.9599176949986301  0.9521202349274702  0.7500000000000000
  0.0400823050013699  0.0478797650725298  0.2500000000000000
  0.5478797650725298  0.5400823050013699  0.7500000000000000
  0.4521202349274702  0.4599176949986301  0.2500000000000000
  0.7096312146602699  0.7903687853397301  0.0434261425758109
  0.7096312146602699  0.7903687853397301  0.4565738574241891
  0.2903687853397301  0.2096312146602699  0.9565738574241891
  0.2903687853397301  0.2096312146602699  0.5434261425758109

  0.00000000E+00  0.00000000E+00  0.00000000E+00
  0.00000000E+00  0.00000000E+00  0.00000000E+00
  0.00000000E+00  0.00000000E+00  0.00000000E+00
  0.00000000E+00  0.00000000E+00  0.00000000E+00
  0.00000000E+00  0.00000000E+00  0.00000000E+00
  0.00000000E+00  0.00000000E+00  0.00000000E+00
  0.00000000E+00  0.00000000E+00  0.00000000E+00
  0.00000000E+00  0.00000000E+00  0.00000000E+00
  0.00000000E+00  0.00000000E+00  0.00000000E+00
  0.00000000E+00  0.00000000E+00  0.00000000E+00
  0.00000000E+00  0.00000000E+00  0.00000000E+00
  0.00000000E+00  0.00000000E+00  0.00000000E+00
  0.00000000E+00  0.00000000E+00  0.00000000E+00
  0.00000000E+00  0.00000000E+00  0.00000000E+00
  0.00000000E+00  0.00000000E+00  0.00000000E+00
  0.00000000E+00  0.00000000E+00  0.00000000E+00
  0.00000000E+00  0.00000000E+00  0.00000000E+00
  0.00000000E+00  0.00000000E+00  0.00000000E+00
  0.00000000E+00  0.00000000E+00  0.00000000E+00
  0.00000000E+00  0.00000000E+00  0.00000000E+00
