Cs4 Pb4 Br12                            
   1.0000000000000000     
    -5.8048125591732784   -5.9005327169720996    0.0000000000000000
    -5.8048125591732784    5.9005327169720996    0.0000000000000000
     0.0000000000000000    0.0000000000000000  -11.7577053640714091
   Cs   Pb   Br
     4     4    12
Direct
  0.5193261984267435 -0.0193261984267436  0.7500000000000000
  0.4806738015732563  0.0193261984267436  0.2500000000000000
  0.0213506937000850  0.4786493062999150  0.7500000000000000
 -0.0213506937000850  0.5213506937000850  0.2500000000000000
  0.0000000000000000  0.0000000000000000 -0.0000000000000000
  0.0000000000000000  0.0000000000000000  0.5000000000000000
  0.5000000000000000  0.5000000000000000 -0.0000000000000000
  0.5000000000000000  0.5000000000000000  0.5000000000000000
  0.7913143797890537  0.2913143797890538 -0.0000000000000000
  0.7913143797890537  0.2913143797890538  0.5000000000000000
  0.2086856202109462  0.7086856202109463 -0.0000000000000000
  0.2086856202109462  0.7086856202109463  0.5000000000000000
  0.9599176949986310  0.9521202349274726  0.7500000000000000
  0.0400823050013690  0.0478797650725273  0.2500000000000000
  0.5478797650725274  0.5400823050013690  0.7500000000000000
  0.4521202349274727  0.4599176949986309  0.2500000000000000
  0.7096312146602722  0.7903687853397278  0.0434261425758110
  0.7096312146602722  0.7903687853397278  0.4565738574241888
  0.2903687853397278  0.2096312146602723  0.9565738574241891
  0.2903687853397278  0.2096312146602723  0.5434261425758109

  0.00000000E+00  0.00000000E+00  0.00000000E+00
  0.00000000E+00  0.00000000E+00  0.00000000E+00
  0.00000000E+00  0.00000000E+00  0.00000000E+00
  0.00000000E+00  0.00000000E+00  0.00000000E+00
  0.00000000E+00  0.00000000E+00  0.00000000E+00
  0.00000000E+00  0.00000000E+00  0.00000000E+00
  0.00000000E+00  0.00000000E+00  0.00000000E+00
  0.00000000E+00  0.00000000E+00  0.00000000E+00
  0.00000000E+00  0.00000000E+00  0.00000000E+00
  0.00000000E+00  0.00000000E+00  0.00000000E+00
  0.00000000E+00  0.00000000E+00  0.00000000E+00
  0.00000000E+00  0.00000000E+00  0.00000000E+00
  0.00000000E+00  0.00000000E+00  0.00000000E+00
  0.00000000E+00  0.00000000E+00  0.00000000E+00
  0.00000000E+00  0.00000000E+00  0.00000000E+00
  0.00000000E+00  0.00000000E+00  0.00000000E+00
  0.00000000E+00  0.00000000E+00  0.00000000E+00
  0.00000000E+00  0.00000000E+00  0.00000000E+00
  0.00000000E+00  0.00000000E+00  0.00000000E+00
  0.00000000E+00  0.00000000E+00  0.00000000E+00
