Cs8 Pb8 Br23                            
   1.0000000000000000     
     8.4564889999999995    0.0000000000000000    8.0403009999999995
     0.0000000000000000   11.7298469999999995    0.0000000000000000
    -8.4564889999999995    0.0000000000000000    8.0403009999999995
   Cs   Pb   Br
     8     8    23
Direct
  0.2488420000000033  0.2359000000000009  0.1926249999999996
  0.7756230000000031  0.2447950000000034  0.7192939999999979
  0.7771109999999979  0.7645989999999969  0.2571900000000014
  0.1928970000000021  0.7481889999999964  0.7717409999999987
  0.3003140000000002  0.2514650000000032  0.7311490000000020
  0.7849450000000004  0.2451140000000009  0.2271179999999973
  0.7364180000000005  0.7517560000000003  0.8058380000000014
  0.2142860000000013  0.7526579999999967  0.2899420000000035
  0.9982249999999979  0.0007090000000005  0.9976899999999986
  0.4995720000000006  0.0015670000000014  0.4844750000000033
  0.4930820000000011  0.0015059999999991  0.9926239999999993
  0.0059660000000008  0.0002640000000014  0.5065510000000017
  0.5012720000000002  0.5071810000000028  0.0040260000000032
  0.0066320000000033  0.4927479999999989  0.5066410000000019
  0.9999340000000032  0.4979780000000034  0.0009220000000028
  0.5076210000000003  0.4867589999999993  0.5082629999999995
  0.4651500000000013  0.7526560000000018  0.9506209999999982
  0.9813359999999989  0.7464439999999968  0.4943120000000008
  0.9681909999999974  0.2497129999999999  0.9787120000000016
  0.4560609999999983  0.2398319999999998  0.4512199999999993
  0.0165020000000027  0.7498069999999970  0.0318740000000020
  0.5176090000000002  0.2559260000000023  0.0341370000000012
  0.0390319999999988  0.2466069999999974  0.5489090000000019
  0.2481840000000020  0.4707960000000000  0.9552600000000027
  0.7527299999999997  0.4506730000000019  0.4603370000000027
  0.9442609999999974  0.5279560000000032  0.7537069999999986
  0.5463459999999998  0.0324710000000010  0.7379839999999973
  0.0347349999999977  0.0214160000000021  0.2554889999999972
  0.7472629999999967  0.9794229999999970  0.0384170000000026
  0.2557710000000029  0.9582770000000025  0.5480189999999965
  0.2427479999999989  0.0299679999999967  0.9366899999999987
  0.7474029999999985  0.0287289999999985  0.4489450000000019
  0.4323120000000031  0.9762940000000029  0.2351320000000001
  0.9429659999999984  0.9697069999999997  0.7509340000000009
  0.7503850000000014  0.5287900000000008  0.0571989999999971
  0.2610039999999998  0.5316509999999965  0.5539759999999987
  0.5531859999999966  0.4776889999999980  0.7692440000000005
  0.0500299999999996  0.4705149999999989  0.2583640000000003
  0.5040320000000023  0.6671120000000030  0.3505559999999974

  0.00000000E+00  0.00000000E+00  0.00000000E+00
  0.00000000E+00  0.00000000E+00  0.00000000E+00
  0.00000000E+00  0.00000000E+00  0.00000000E+00
  0.00000000E+00  0.00000000E+00  0.00000000E+00
  0.00000000E+00  0.00000000E+00  0.00000000E+00
  0.00000000E+00  0.00000000E+00  0.00000000E+00
  0.00000000E+00  0.00000000E+00  0.00000000E+00
  0.00000000E+00  0.00000000E+00  0.00000000E+00
  0.00000000E+00  0.00000000E+00  0.00000000E+00
  0.00000000E+00  0.00000000E+00  0.00000000E+00
  0.00000000E+00  0.00000000E+00  0.00000000E+00
  0.00000000E+00  0.00000000E+00  0.00000000E+00
  0.00000000E+00  0.00000000E+00  0.00000000E+00
  0.00000000E+00  0.00000000E+00  0.00000000E+00
  0.00000000E+00  0.00000000E+00  0.00000000E+00
  0.00000000E+00  0.00000000E+00  0.00000000E+00
  0.00000000E+00  0.00000000E+00  0.00000000E+00
  0.00000000E+00  0.00000000E+00  0.00000000E+00
  0.00000000E+00  0.00000000E+00  0.00000000E+00
  0.00000000E+00  0.00000000E+00  0.00000000E+00
  0.00000000E+00  0.00000000E+00  0.00000000E+00
  0.00000000E+00  0.00000000E+00  0.00000000E+00
  0.00000000E+00  0.00000000E+00  0.00000000E+00
  0.00000000E+00  0.00000000E+00  0.00000000E+00
  0.00000000E+00  0.00000000E+00  0.00000000E+00
  0.00000000E+00  0.00000000E+00  0.00000000E+00
  0.00000000E+00  0.00000000E+00  0.00000000E+00
  0.00000000E+00  0.00000000E+00  0.00000000E+00
  0.00000000E+00  0.00000000E+00  0.00000000E+00
  0.00000000E+00  0.00000000E+00  0.00000000E+00
  0.00000000E+00  0.00000000E+00  0.00000000E+00
  0.00000000E+00  0.00000000E+00  0.00000000E+00
  0.00000000E+00  0.00000000E+00  0.00000000E+00
  0.00000000E+00  0.00000000E+00  0.00000000E+00
  0.00000000E+00  0.00000000E+00  0.00000000E+00
  0.00000000E+00  0.00000000E+00  0.00000000E+00
  0.00000000E+00  0.00000000E+00  0.00000000E+00
  0.00000000E+00  0.00000000E+00  0.00000000E+00
  0.00000000E+00  0.00000000E+00  0.00000000E+00
