Cs8 Pb8 Br23
1.0
8.456489 0.000000 8.040301
0.000000 11.729847 0.000000
-8.456489 0.000000 8.040301
Cs Pb Br
8 8 23
direct
0.248842 0.235900 0.192625 Cs
0.775623 0.244795 0.719294 Cs
0.777111 0.764599 0.257190 Cs
0.192897 0.748189 0.771741 Cs
0.300314 0.251465 0.731149 Cs
0.784945 0.245114 0.227118 Cs
0.736418 0.751756 0.805838 Cs
0.214286 0.752658 0.289942 Cs
-0.001775 0.000709 -0.002310 Pb
0.499572 0.001567 0.484475 Pb
0.493082 0.001506 -0.007376 Pb
0.005966 0.000264 0.506551 Pb
0.501272 0.507181 0.004026 Pb
0.006632 0.492748 0.506641 Pb
-0.000066 0.497978 0.000922 Pb
0.507621 0.486759 0.508263 Pb
0.465150 0.752656 0.950621 Br
0.981336 0.746444 0.494312 Br
0.968191 0.249713 0.978712 Br
0.456061 0.239832 0.451220 Br
0.016502 0.749807 0.031874 Br
0.517609 0.255926 0.034137 Br
0.039032 0.246607 0.548909 Br
0.248184 0.470796 0.955260 Br
0.752730 0.450673 0.460337 Br
0.944261 0.527956 0.753707 Br
0.546346 0.032471 0.737984 Br
0.034735 0.021416 0.255489 Br
0.747263 0.979423 0.038417 Br
0.255771 0.958277 0.548019 Br
0.242748 0.029968 0.936690 Br
0.747403 0.028729 0.448945 Br
0.432312 0.976294 0.235132 Br
0.942966 0.969707 0.750934 Br
0.750385 0.528790 0.057199 Br
0.261004 0.531651 0.553976 Br
0.553186 0.477689 0.769244 Br
0.050030 0.470515 0.258364 Br
0.504032 0.667112 0.350556 Br
