Cs4 Pb4 Br12                            
   1.0000000000000000     
     7.8743812817041965    0.0000000000000000    0.0000000000000000
     0.0000000000000000   12.3519981738715945    0.0000000000000000
     0.0000000000000000    0.0000000000000000    8.4818795813957841
   Cs   Pb   Br
     4     4    12
Direct
  0.0033515613460580  0.2500000000000000  0.5155462190865592
  0.4966484386539420  0.7500000000000000  0.0155462190865592
  0.5033515613460580  0.2500000000000000  0.9844537809134408
  0.9966484386539420  0.7500000000000000  0.4844537809134408
  0.0000000000000000  0.0000000000000000  0.0000000000000000
  0.5000000000000000  0.0000000000000000  0.5000000000000000
  0.5000000000000000  0.5000000000000000  0.5000000000000000
  0.0000000000000000  0.5000000000000000  0.0000000000000000
  0.5014928626192088  0.7500000000000000  0.4752309664387582
  0.9985071373807912  0.2500000000000000  0.9752309664387582
  0.0014928626192088  0.7500000000000000  0.0247690335612418
  0.4985071373807912  0.2500000000000000  0.5247690335612418
  0.3205406146612546  0.4912387831325447  0.1881381821226071
  0.1794593853387454  0.5087612168674553  0.6881381821226071
  0.8205406146612546  0.0087612168674553  0.3118618178773929
  0.6794593853387454  0.9912387831325447  0.8118618178773929
  0.3205406146612546  0.0087612168674553  0.1881381821226071
  0.1794593853387454  0.9912387831325447  0.6881381821226071
  0.6794593853387454  0.5087612168674553  0.8118618178773929
  0.8205406146612546  0.4912387831325447  0.3118618178773929

  0.00000000E+00  0.00000000E+00  0.00000000E+00
  0.00000000E+00  0.00000000E+00  0.00000000E+00
  0.00000000E+00  0.00000000E+00  0.00000000E+00
  0.00000000E+00  0.00000000E+00  0.00000000E+00
  0.00000000E+00  0.00000000E+00  0.00000000E+00
  0.00000000E+00  0.00000000E+00  0.00000000E+00
  0.00000000E+00  0.00000000E+00  0.00000000E+00
  0.00000000E+00  0.00000000E+00  0.00000000E+00
  0.00000000E+00  0.00000000E+00  0.00000000E+00
  0.00000000E+00  0.00000000E+00  0.00000000E+00
  0.00000000E+00  0.00000000E+00  0.00000000E+00
  0.00000000E+00  0.00000000E+00  0.00000000E+00
  0.00000000E+00  0.00000000E+00  0.00000000E+00
  0.00000000E+00  0.00000000E+00  0.00000000E+00
  0.00000000E+00  0.00000000E+00  0.00000000E+00
  0.00000000E+00  0.00000000E+00  0.00000000E+00
  0.00000000E+00  0.00000000E+00  0.00000000E+00
  0.00000000E+00  0.00000000E+00  0.00000000E+00
  0.00000000E+00  0.00000000E+00  0.00000000E+00
  0.00000000E+00  0.00000000E+00  0.00000000E+00
