Cs8 Pb8 Br23                            
   1.0000000000000000     
     8.4564889999999995    0.0000000000000000    8.0403009999999995
     0.0000000000000000   11.7298469999999995    0.0000000000000000
    -8.4564889999999995    0.0000000000000000    8.0403009999999995
   Cs   Pb   Br
     8     8    23
Direct
  0.2486370000000022  0.2357749999999967  0.1930989999999966
  0.7761070000000032  0.2449450000000013  0.7189929999999976
  0.7772319999999979  0.7646289999999993  0.2575440000000029
  0.1926869999999994  0.7481950000000026  0.7713869999999972
  0.3009169999999983  0.2517380000000031  0.7329489999999979
  0.7842270000000013  0.2448070000000016  0.2271690000000035
  0.7362830000000002  0.7513649999999998  0.8061650000000000
  0.2148350000000008  0.7542079999999984  0.2876199999999969
  0.9978339999999974  0.0005769999999998  0.9973519999999994
  0.4996739999999988  0.0016040000000004  0.4847749999999991
  0.4929050000000004  0.0014619999999965  0.9923689999999965
  0.0060489999999973  0.0002920000000017  0.5066339999999983
  0.5011670000000024  0.5073190000000025  0.0041370000000001
  0.0069500000000033  0.4925810000000013  0.5067829999999987
  0.9998209999999972  0.4978380000000016  0.0011870000000016
  0.5075909999999979  0.4866900000000030  0.5084149999999994
  0.4646580000000000  0.7525910000000025  0.9505160000000004
  0.9826899999999981  0.7463860000000011  0.4936050000000023
  0.9676979999999986  0.2496379999999974  0.9792229999999975
  0.4562710000000010  0.2399589999999989  0.4516160000000013
  0.0157710000000009  0.7495800000000017  0.0313820000000007
  0.5163950000000028  0.2558340000000001  0.0332840000000019
  0.0397930000000031  0.2463720000000009  0.5498789999999971
  0.2481310000000008  0.4711360000000013  0.9557810000000018
  0.7528950000000023  0.4504969999999986  0.4604330000000019
  0.9443020000000004  0.5278289999999970  0.7536490000000029
  0.5466320000000024  0.0326779999999971  0.7377070000000003
  0.0343379999999982  0.0214539999999985  0.2551610000000011
  0.7466000000000008  0.9789030000000025  0.0380309999999966
  0.2558679999999995  0.9587069999999969  0.5477690000000024
  0.2419569999999993  0.0294269999999983  0.9366910000000033
  0.7475290000000001  0.0287140000000008  0.4490839999999992
  0.4334819999999979  0.9772189999999981  0.2346789999999999
  0.9421299999999988  0.9693299999999994  0.7505439999999979
  0.7504860000000022  0.5286210000000011  0.0576239999999970
  0.2612760000000023  0.5311179999999993  0.5545180000000016
  0.5536320000000003  0.4776990000000012  0.7693700000000021
  0.0505679999999984  0.4707530000000020  0.2584289999999996
  0.5039629999999988  0.6671690000000012  0.3505740000000017

  0.00000000E+00  0.00000000E+00  0.00000000E+00
  0.00000000E+00  0.00000000E+00  0.00000000E+00
  0.00000000E+00  0.00000000E+00  0.00000000E+00
  0.00000000E+00  0.00000000E+00  0.00000000E+00
  0.00000000E+00  0.00000000E+00  0.00000000E+00
  0.00000000E+00  0.00000000E+00  0.00000000E+00
  0.00000000E+00  0.00000000E+00  0.00000000E+00
  0.00000000E+00  0.00000000E+00  0.00000000E+00
  0.00000000E+00  0.00000000E+00  0.00000000E+00
  0.00000000E+00  0.00000000E+00  0.00000000E+00
  0.00000000E+00  0.00000000E+00  0.00000000E+00
  0.00000000E+00  0.00000000E+00  0.00000000E+00
  0.00000000E+00  0.00000000E+00  0.00000000E+00
  0.00000000E+00  0.00000000E+00  0.00000000E+00
  0.00000000E+00  0.00000000E+00  0.00000000E+00
  0.00000000E+00  0.00000000E+00  0.00000000E+00
  0.00000000E+00  0.00000000E+00  0.00000000E+00
  0.00000000E+00  0.00000000E+00  0.00000000E+00
  0.00000000E+00  0.00000000E+00  0.00000000E+00
  0.00000000E+00  0.00000000E+00  0.00000000E+00
  0.00000000E+00  0.00000000E+00  0.00000000E+00
  0.00000000E+00  0.00000000E+00  0.00000000E+00
  0.00000000E+00  0.00000000E+00  0.00000000E+00
  0.00000000E+00  0.00000000E+00  0.00000000E+00
  0.00000000E+00  0.00000000E+00  0.00000000E+00
  0.00000000E+00  0.00000000E+00  0.00000000E+00
  0.00000000E+00  0.00000000E+00  0.00000000E+00
  0.00000000E+00  0.00000000E+00  0.00000000E+00
  0.00000000E+00  0.00000000E+00  0.00000000E+00
  0.00000000E+00  0.00000000E+00  0.00000000E+00
  0.00000000E+00  0.00000000E+00  0.00000000E+00
  0.00000000E+00  0.00000000E+00  0.00000000E+00
  0.00000000E+00  0.00000000E+00  0.00000000E+00
  0.00000000E+00  0.00000000E+00  0.00000000E+00
  0.00000000E+00  0.00000000E+00  0.00000000E+00
  0.00000000E+00  0.00000000E+00  0.00000000E+00
  0.00000000E+00  0.00000000E+00  0.00000000E+00
  0.00000000E+00  0.00000000E+00  0.00000000E+00
  0.00000000E+00  0.00000000E+00  0.00000000E+00
