Cs8 Pb8 Br23
1.0
8.456489 0.000000 8.040301
0.000000 11.729847 0.000000
-8.456489 0.000000 8.040301
Cs Pb Br
8 8 23
direct
0.248637 0.235775 0.193099 Cs
0.776107 0.244945 0.718993 Cs
0.777232 0.764629 0.257544 Cs
0.192687 0.748195 0.771387 Cs
0.300917 0.251738 0.732949 Cs
0.784227 0.244807 0.227169 Cs
0.736283 0.751365 0.806165 Cs
0.214835 0.754208 0.287620 Cs
-0.002166 0.000577 -0.002648 Pb
0.499674 0.001604 0.484775 Pb
0.492905 0.001462 -0.007631 Pb
0.006049 0.000292 0.506634 Pb
0.501167 0.507319 0.004137 Pb
0.006950 0.492581 0.506783 Pb
-0.000179 0.497838 0.001187 Pb
0.507591 0.486690 0.508415 Pb
0.464658 0.752591 0.950516 Br
0.982690 0.746386 0.493605 Br
0.967698 0.249638 0.979223 Br
0.456271 0.239959 0.451616 Br
0.015771 0.749580 0.031382 Br
0.516395 0.255834 0.033284 Br
0.039793 0.246372 0.549879 Br
0.248131 0.471136 0.955781 Br
0.752895 0.450497 0.460433 Br
0.944302 0.527829 -0.246351 Br
0.546632 0.032678 0.737707 Br
0.034338 0.021454 0.255161 Br
0.746600 0.978903 0.038031 Br
0.255868 0.958707 0.547769 Br
0.241957 0.029427 0.936691 Br
0.747529 0.028714 0.449084 Br
0.433482 0.977219 0.234679 Br
0.942130 0.969330 0.750544 Br
0.750486 0.528621 0.057624 Br
0.261276 0.531118 0.554518 Br
0.553632 0.477699 0.769370 Br
0.050568 0.470753 0.258429 Br
0.503963 0.667169 0.350574 Br
