Cs4 Pb4 Br12                            
   1.0000000000000000     
     8.6726181258150437    0.0000000000000000    0.0000000000000000
     0.0000000000000000   11.5458766383616034    0.0000000000000000
     0.0000000000000000    0.0000000000000000    8.3203199703215791
   Cs   Pb   Br
     4     4    12
Direct
  0.0561051307467721  0.2500000000000000  0.4822023562471713
  0.4438948692532279  0.7500000000000000  0.9822023562471713
  0.5561051307467721  0.2500000000000000  0.0177976437528287
  0.9438948692532279  0.7500000000000000  0.5177976437528287
  0.0000000000000000  0.0000000000000000  0.0000000000000000
  0.5000000000000000  0.0000000000000000  0.5000000000000000
  0.5000000000000000  0.5000000000000000  0.5000000000000000
  0.0000000000000000  0.5000000000000000  0.0000000000000000
  0.5195358150337910  0.7500000000000000  0.4195992975545764
  0.9804641849662090  0.2500000000000000  0.9195992975545764
  0.0195358150337910  0.7500000000000000  0.0804007024454236
  0.4804641849662090  0.2500000000000000  0.5804007024454236
  0.2837236017922393  0.4617380494598393  0.2139627814764395
  0.2162763982077607  0.5382619505401607  0.7139627814764395
  0.7837236017922393  0.0382619505401607  0.2860372185235605
  0.7162763982077607  0.9617380494598393  0.7860372185235605
  0.2837236017922393  0.0382619505401607  0.2139627814764395
  0.2162763982077607  0.9617380494598393  0.7139627814764395
  0.7162763982077607  0.5382619505401607  0.7860372185235605
  0.7837236017922393  0.4617380494598393  0.2860372185235605

  0.00000000E+00  0.00000000E+00  0.00000000E+00
  0.00000000E+00  0.00000000E+00  0.00000000E+00
  0.00000000E+00  0.00000000E+00  0.00000000E+00
  0.00000000E+00  0.00000000E+00  0.00000000E+00
  0.00000000E+00  0.00000000E+00  0.00000000E+00
  0.00000000E+00  0.00000000E+00  0.00000000E+00
  0.00000000E+00  0.00000000E+00  0.00000000E+00
  0.00000000E+00  0.00000000E+00  0.00000000E+00
  0.00000000E+00  0.00000000E+00  0.00000000E+00
  0.00000000E+00  0.00000000E+00  0.00000000E+00
  0.00000000E+00  0.00000000E+00  0.00000000E+00
  0.00000000E+00  0.00000000E+00  0.00000000E+00
  0.00000000E+00  0.00000000E+00  0.00000000E+00
  0.00000000E+00  0.00000000E+00  0.00000000E+00
  0.00000000E+00  0.00000000E+00  0.00000000E+00
  0.00000000E+00  0.00000000E+00  0.00000000E+00
  0.00000000E+00  0.00000000E+00  0.00000000E+00
  0.00000000E+00  0.00000000E+00  0.00000000E+00
  0.00000000E+00  0.00000000E+00  0.00000000E+00
  0.00000000E+00  0.00000000E+00  0.00000000E+00
