Cs4 Pb4 Br12                            
   1.0000000000000000     
     8.3727024415274549    0.0000000000000000    0.0000000000000000
     0.0000000000000000   11.7494658446213887    0.0000000000000000
     0.0000000000000000    0.0000000000000000    8.1587603592473741
   Cs   Pb   Br
     4     4    12
Direct
  0.0605849610943068  0.2500000000000000  0.4834356797444883
  0.4394150389056932  0.7500000000000000  0.9834356797444883
  0.5605849610943068  0.2500000000000000  0.0165643202555117
  0.9394150389056932  0.7500000000000000  0.5165643202555117
  0.0000000000000000  0.0000000000000000  0.0000000000000000
  0.5000000000000000  0.0000000000000000  0.5000000000000000
  0.5000000000000000  0.5000000000000000  0.5000000000000000
  0.0000000000000000  0.5000000000000000  0.0000000000000000
  0.5060351810389108  0.7500000000000000  0.4321057897268190
  0.9939648189610892  0.2500000000000000  0.9321057897268190
  0.0060351810389108  0.7500000000000000  0.0678942102731810
  0.4939648189610892  0.2500000000000000  0.5678942102731810
  0.2978869040701966  0.4654684663309112  0.1998932064329253
  0.2021130959298034  0.5345315336690888  0.6998932064329253
  0.7978869040701966  0.0345315336690888  0.3001067935670747
  0.7021130959298034  0.9654684663309112  0.8001067935670747
  0.2978869040701966  0.0345315336690888  0.1998932064329253
  0.2021130959298034  0.9654684663309112  0.6998932064329253
  0.7021130959298034  0.5345315336690888  0.8001067935670747
  0.7978869040701966  0.4654684663309112  0.3001067935670747

  0.00000000E+00  0.00000000E+00  0.00000000E+00
  0.00000000E+00  0.00000000E+00  0.00000000E+00
  0.00000000E+00  0.00000000E+00  0.00000000E+00
  0.00000000E+00  0.00000000E+00  0.00000000E+00
  0.00000000E+00  0.00000000E+00  0.00000000E+00
  0.00000000E+00  0.00000000E+00  0.00000000E+00
  0.00000000E+00  0.00000000E+00  0.00000000E+00
  0.00000000E+00  0.00000000E+00  0.00000000E+00
  0.00000000E+00  0.00000000E+00  0.00000000E+00
  0.00000000E+00  0.00000000E+00  0.00000000E+00
  0.00000000E+00  0.00000000E+00  0.00000000E+00
  0.00000000E+00  0.00000000E+00  0.00000000E+00
  0.00000000E+00  0.00000000E+00  0.00000000E+00
  0.00000000E+00  0.00000000E+00  0.00000000E+00
  0.00000000E+00  0.00000000E+00  0.00000000E+00
  0.00000000E+00  0.00000000E+00  0.00000000E+00
  0.00000000E+00  0.00000000E+00  0.00000000E+00
  0.00000000E+00  0.00000000E+00  0.00000000E+00
  0.00000000E+00  0.00000000E+00  0.00000000E+00
  0.00000000E+00  0.00000000E+00  0.00000000E+00
