Cs4 Pb4 Br12                            
   1.0000000000000000     
     8.3727024415274549    0.0000000000000000    0.0000000000000000
     0.0000000000000000   11.7494658446213887    0.0000000000000000
     0.0000000000000000    0.0000000000000000    8.1587603592473741
   Cs   Pb   Br
     4     4    12
Direct
  0.0605849610943094  0.2500000000000000  0.4834356797444896
  0.4394150389056906  0.7500000000000000  0.9834356797444894
  0.5605849610943094  0.2500000000000000  0.0165643202555105
  0.9394150389056906  0.7500000000000000  0.5165643202555106
  0.0000000000000000  0.0000000000000000  0.0000000000000000
  0.5000000000000000  0.0000000000000000  0.5000000000000000
  0.5000000000000000  0.5000000000000000  0.5000000000000000
  0.0000000000000000  0.5000000000000000  0.0000000000000000
  0.5060351810389118  0.7500000000000000  0.4321057897268162
  0.9939648189610882  0.2500000000000000  0.9321057897268160
  0.0060351810389116  0.7500000000000000  0.0678942102731839
  0.4939648189610883  0.2500000000000000  0.5678942102731840
  0.2978869040701957  0.4654684663309099  0.1998932064329252
  0.2021130959298044  0.5345315336690899  0.6998932064329252
  0.7978869040701956  0.0345315336690901  0.3001067935670748
  0.7021130959298044  0.9654684663309101  0.8001067935670748
  0.2978869040701957  0.0345315336690901  0.1998932064329252
  0.2021130959298044  0.9654684663309101  0.6998932064329252
  0.7021130959298044  0.5345315336690899  0.8001067935670748
  0.7978869040701956  0.4654684663309099  0.3001067935670748

  0.00000000E+00  0.00000000E+00  0.00000000E+00
  0.00000000E+00  0.00000000E+00  0.00000000E+00
  0.00000000E+00  0.00000000E+00  0.00000000E+00
  0.00000000E+00  0.00000000E+00  0.00000000E+00
  0.00000000E+00  0.00000000E+00  0.00000000E+00
  0.00000000E+00  0.00000000E+00  0.00000000E+00
  0.00000000E+00  0.00000000E+00  0.00000000E+00
  0.00000000E+00  0.00000000E+00  0.00000000E+00
  0.00000000E+00  0.00000000E+00  0.00000000E+00
  0.00000000E+00  0.00000000E+00  0.00000000E+00
  0.00000000E+00  0.00000000E+00  0.00000000E+00
  0.00000000E+00  0.00000000E+00  0.00000000E+00
  0.00000000E+00  0.00000000E+00  0.00000000E+00
  0.00000000E+00  0.00000000E+00  0.00000000E+00
  0.00000000E+00  0.00000000E+00  0.00000000E+00
  0.00000000E+00  0.00000000E+00  0.00000000E+00
  0.00000000E+00  0.00000000E+00  0.00000000E+00
  0.00000000E+00  0.00000000E+00  0.00000000E+00
  0.00000000E+00  0.00000000E+00  0.00000000E+00
  0.00000000E+00  0.00000000E+00  0.00000000E+00
