Cs64 Pb64 Br191
1.0
16.840035 0.000000 16.155961
0.000000 23.527616 0.000000
-16.840035 0.000000 16.155961
Cs Pb Br Cs Pb Br
56 56 168 8 8 23
direct
0.886107 0.875102 0.353542 Cs
0.136073 0.875085 0.603594 Cs
0.886125 0.374885 0.353541 Cs
0.136082 0.374917 0.603832 Cs
0.886385 0.875185 0.853870 Cs
0.135835 0.875135 0.103252 Cs
0.383772 0.875296 0.350537 Cs
0.636970 0.875124 0.604597 Cs
0.886190 0.374804 0.853713 Cs
0.135984 0.374850 0.103535 Cs
0.386101 0.875173 0.853624 Cs
0.636121 0.875019 0.103429 Cs
0.386021 0.374839 0.853513 Cs
0.636178 0.374965 0.103415 Cs
0.103509 0.125019 0.386057 Cs
0.352784 0.124951 0.636074 Cs
0.102378 0.624974 0.385562 Cs
0.103503 0.125021 0.886086 Cs
0.353813 0.124998 0.135885 Cs
0.603892 0.125057 0.385042 Cs
0.853830 0.125000 0.636246 Cs
0.103772 0.624962 0.886089 Cs
0.353623 0.625000 0.135340 Cs
0.853937 0.624984 0.636339 Cs
0.603865 0.125038 0.886255 Cs
0.853628 0.124989 0.136003 Cs
0.604137 0.624950 0.887693 Cs
0.853392 0.625004 0.136752 Cs
0.896556 0.875069 0.113919 Cs
0.146092 0.875187 0.363700 Cs
0.896529 0.374919 0.113888 Cs
0.146151 0.374818 0.363792 Cs
0.896724 0.875144 0.614019 Cs
0.146329 0.875158 0.864001 Cs
0.395929 0.875037 0.113742 Cs
0.647802 0.875176 0.363923 Cs
0.896812 0.374861 0.614122 Cs
0.146503 0.374823 0.863764 Cs
0.396002 0.374933 0.113700 Cs
0.396053 0.875114 0.615343 Cs
0.646166 0.875193 0.864303 Cs
0.646059 0.374791 0.864391 Cs
0.113692 0.124993 0.146215 Cs
0.363588 0.125007 0.396150 Cs
0.114179 0.625008 0.146604 Cs
0.113954 0.124974 0.646462 Cs
0.363942 0.124998 0.896695 Cs
0.613973 0.125003 0.146422 Cs
0.864134 0.125010 0.396356 Cs
0.113618 0.625010 0.646471 Cs
0.363649 0.624994 0.897200 Cs
0.614389 0.624996 0.145582 Cs
0.864098 0.624985 0.396130 Cs
0.614616 0.125037 0.647154 Cs
0.864218 0.124979 0.896801 Cs
0.863735 0.625022 0.895945 Cs
0.750455 0.750493 0.249634 Pb
0.000155 0.750096 0.500024 Pb
0.750172 0.249754 0.249867 Pb
0.000013 0.249920 0.500022 Pb
0.750474 0.750980 0.750430 Pb
0.000019 0.749811 0.000052 Pb
0.249313 0.750686 0.249413 Pb
0.499287 0.754594 0.498780 Pb
0.750318 0.249537 0.750357 Pb
0.000018 0.250049 0.000001 Pb
0.249670 0.750326 0.750367 Pb
0.499933 0.750096 0.000020 Pb
0.249885 0.249711 0.750202 Pb
0.499996 0.249939 0.000057 Pb
0.000108 0.750161 0.249926 Pb
0.249764 0.749745 0.500048 Pb
-0.000060 0.249870 0.249914 Pb
0.000126 0.750090 0.750170 Pb
0.249776 0.750199 -0.000098 Pb
0.499879 0.750090 0.249684 Pb
0.750828 0.750204 0.500169 Pb
-0.000022 0.249871 0.750067 Pb
0.249888 0.249897 -0.000061 Pb
0.750254 0.249748 0.500084 Pb
0.499934 0.749821 0.750315 Pb
0.750264 0.750109 0.000166 Pb
0.499929 0.249701 0.750177 Pb
0.750129 0.249845 0.000081 Pb
-0.000053 0.000082 0.249928 Pb
0.249728 -0.000237 0.499986 Pb
0.000111 0.499783 0.249912 Pb
0.000012 0.000059 0.750067 Pb
0.249912 0.000065 -0.000062 Pb
0.500111 -0.000202 0.249872 Pb
0.750239 0.000348 0.500056 Pb
0.000087 0.499915 0.750180 Pb
0.249777 0.499750 -0.000091 Pb
0.750765 0.499625 0.500159 Pb
0.499954 0.000338 0.750207 Pb
0.750114 0.000065 0.000077 Pb
0.499869 0.500196 0.750242 Pb
0.750291 0.499895 0.000172 Pb
0.750159 0.000207 0.249869 Pb
0.000003 0.000058 0.500020 Pb
0.750453 0.499482 0.249620 Pb
0.000166 0.499867 0.500014 Pb
0.750244 0.000222 0.750262 Pb
0.000016 -0.000013 0.000017 Pb
0.249757 0.000432 0.249792 Pb
0.500154 0.001644 0.500170 Pb
0.750536 0.499301 0.750517 Pb
0.000020 0.500045 0.000025 Pb
0.249874 0.000106 0.750171 Pb
0.500002 0.000043 0.000057 Pb
0.249692 0.499838 0.750399 Pb
0.499925 0.499828 0.000012 Pb
0.984167 0.124974 0.230692 Br
0.234673 0.124925 0.480951 Br
0.984594 0.624961 0.231139 Br
0.232280 0.625067 0.480125 Br
0.984399 0.124959 0.730506 Br
0.234284 0.124971 0.980509 Br
0.484541 0.125005 0.231539 Br
0.733680 0.125027 0.480187 Br
0.984349 0.624989 0.730784 Br
0.234222 0.624962 0.981374 Br
0.485012 0.625064 0.229434 Br
0.484076 0.125025 0.729429 Br
0.734322 0.124951 0.980644 Br
0.734654 0.624988 0.981078 Br
0.230639 0.875373 0.234123 Br
0.479638 0.871123 0.483197 Br
0.231252 0.374679 0.234494 Br
0.230852 0.874987 0.734092 Br
0.480563 0.874912 0.984419 Br
0.730818 0.875117 0.234006 Br
0.980810 0.874935 0.484198 Br
0.231757 0.374998 0.733901 Br
0.480510 0.375062 0.984220 Br
0.730882 0.374839 0.233932 Br
0.980750 0.375049 0.484256 Br
0.730221 0.875254 0.734645 Br
0.980920 0.874893 0.984474 Br
0.980640 0.375058 0.984298 Br
0.769384 0.124979 0.266017 Br
0.019346 0.124975 0.515803 Br
0.766564 0.624978 0.267110 Br
0.019078 0.624963 0.515710 Br
0.769744 0.124942 0.766047 Br
0.019200 0.125004 0.015584 Br
0.270076 0.124962 0.265804 Br
0.518933 0.125128 0.515294 Br
0.766775 0.625153 0.764473 Br
0.019777 0.624927 0.015879 Br
0.269612 0.124923 0.766009 Br
0.519381 0.124975 0.015713 Br
0.267186 0.625058 0.768090 Br
0.518964 0.624958 0.015923 Br
0.015482 0.875043 0.269462 Br
0.266921 0.874493 0.519807 Br
0.015554 0.374902 0.269481 Br
0.015706 0.874972 0.769232 Br
0.265685 0.875028 0.019329 Br
0.515618 0.874612 0.271944 Br
0.765214 0.874981 0.519409 Br
0.015644 0.374988 0.769149 Br
0.265670 0.374915 0.019350 Br
0.765445 0.374978 0.519721 Br
0.515636 0.874779 0.767906 Br
0.765733 0.874974 0.019500 Br
0.515625 0.375288 0.767946 Br
0.765728 0.374979 0.019317 Br
0.873851 0.982061 0.224575 Br
0.124133 0.981952 0.474623 Br
0.873972 0.482173 0.224435 Br
0.124680 0.482027 0.474742 Br
0.873820 0.981996 0.724494 Br
0.123947 0.982088 0.974535 Br
0.374008 0.981943 0.224570 Br
0.623276 0.981847 0.474808 Br
0.873721 0.482198 0.724468 Br
0.123925 0.481920 0.974352 Br
0.373989 0.482237 0.224848 Br
0.374029 0.982133 0.724587 Br
0.623813 0.982079 0.974673 Br
0.623826 0.482122 0.974781 Br
0.974589 0.017964 0.374009 Br
0.224623 0.017918 0.623826 Br
0.974490 0.517843 0.374033 Br
0.224544 0.518123 0.623860 Br
0.974541 0.017906 0.873859 Br
0.224543 0.018101 0.123967 Br
0.474376 0.017725 0.374575 Br
0.724476 0.017981 0.623848 Br
0.974458 0.518007 0.873857 Br
0.224280 0.517374 0.123833 Br
0.474662 0.017917 0.873703 Br
0.724473 0.018014 0.123981 Br
0.474702 0.518195 0.873479 Br
0.724683 0.517938 0.123971 Br
0.025561 0.767922 0.126192 Br
0.275429 0.767777 0.376137 Br
0.025471 0.267931 0.126143 Br
0.025439 0.767971 0.626046 Br
0.275594 0.768165 0.875978 Br
0.524815 0.768177 0.126739 Br
0.775254 0.767865 0.376252 Br
0.025445 0.267963 0.626027 Br
0.275537 0.267963 0.876070 Br
0.525350 0.268175 0.126347 Br
0.775331 0.268036 0.376253 Br
0.527810 0.764622 0.624652 Br
0.775726 0.767996 0.876027 Br
0.775457 0.267876 0.876105 Br
0.126195 0.231980 0.275510 Br
0.376537 0.232255 0.525600 Br
0.126160 0.732583 0.275937 Br
0.126172 0.232109 0.775461 Br
0.376165 0.232061 0.025454 Br
0.626014 0.232260 0.275497 Br
0.875794 0.232020 0.525451 Br
0.126091 0.732283 0.775529 Br
0.376165 0.732182 0.025322 Br
0.875933 0.732014 0.525447 Br
0.626002 0.232007 0.775301 Br
0.876065 0.232061 0.025522 Br
0.626006 0.732637 0.777017 Br
0.876055 0.731843 0.025644 Br
0.873946 0.767805 0.224440 Br
0.124675 0.768054 0.474726 Br
0.873865 0.267939 0.224570 Br
0.124061 0.268012 0.474638 Br
0.873699 0.767915 0.724484 Br
0.123929 0.767973 0.974415 Br
0.373971 0.767825 0.224936 Br
0.623121 0.765114 0.473059 Br
0.873836 0.267899 0.724458 Br
0.123943 0.267994 0.974484 Br
0.374014 0.267997 0.224529 Br
0.374063 0.767641 0.724485 Br
0.623836 0.767891 0.974766 Br
0.623821 0.267878 0.974690 Br
0.974588 0.232045 0.373988 Br
0.224640 0.232050 0.623855 Br
0.974482 0.732123 0.374031 Br
0.224475 0.731918 0.623831 Br
0.974524 0.232065 0.873854 Br
0.224519 0.231930 0.123977 Br
0.474376 0.232301 0.374483 Br
0.724537 0.232070 0.623911 Br
0.974474 0.732001 0.873855 Br
0.224348 0.732556 0.123843 Br
0.474660 0.232088 0.873652 Br
0.724470 0.231977 0.124002 Br
0.474698 0.731795 0.873484 Br
0.724683 0.732055 0.123968 Br
0.126190 0.018062 0.275535 Br
0.376655 0.017630 0.525542 Br
0.126167 0.517402 0.275872 Br
0.126167 0.017962 0.775473 Br
0.376183 0.017925 0.025456 Br
0.626016 0.017770 0.275525 Br
0.875887 0.017971 0.525459 Br
0.126092 0.517628 0.775505 Br
0.376170 0.517803 0.025322 Br
0.875900 0.517966 0.525410 Br
0.626009 0.018099 0.775389 Br
0.876053 0.017918 0.025512 Br
0.626006 0.517114 0.776944 Br
0.876067 0.518151 0.025659 Br
0.025459 0.982099 0.126158 Br
0.275348 0.982123 0.376185 Br
0.025576 0.482018 0.126176 Br
0.025455 0.982004 0.626023 Br
0.275530 0.981993 0.876061 Br
0.525312 0.981837 0.126379 Br
0.775384 0.981996 0.376240 Br
0.025418 0.482053 0.626032 Br
0.275625 0.481868 0.876000 Br
0.524907 0.481846 0.126696 Br
0.775221 0.482084 0.376262 Br
0.525433 0.981818 0.625392 Br
0.775441 0.981973 0.876072 Br
0.775775 0.482175 0.876059 Br
0.382963 0.374712 0.350266 Cs
0.637911 0.374802 0.606498 Cs
0.610662 0.624939 0.379333 Cs
0.349336 0.625159 0.639066 Cs
0.394877 0.374851 0.615601 Cs
0.647835 0.374654 0.363821 Cs
0.621167 0.624976 0.657577 Cs
0.357460 0.625114 0.390431 Cs
0.249770 0.249460 0.249804 Pb
0.500093 0.248717 0.500174 Pb
0.500071 0.250288 0.249877 Pb
0.249702 0.250069 0.500012 Pb
0.499836 0.499998 0.249726 Pb
0.249828 0.500462 0.500026 Pb
0.249341 0.499475 0.249396 Pb
0.499195 0.495101 0.498753 Pb
0.484457 0.625025 0.727298 Br
0.734187 0.624904 0.481327 Br
0.731317 0.374845 0.735566 Br
0.477644 0.378936 0.483128 Br
0.265738 0.625076 0.261866 Br
0.515240 0.375461 0.272026 Br
0.266493 0.375520 0.519466 Br
0.374063 0.482710 0.724388 Br
0.623100 0.483851 0.473428 Br
0.476717 0.524825 0.375776 Br
0.724680 0.517379 0.623855 Br
0.525282 0.268384 0.625334 Br
0.275256 0.267640 0.376224 Br
0.626039 0.733817 0.273442 Br
0.377788 0.727819 0.524691 Br
0.374032 0.267813 0.724753 Br
0.623126 0.268567 0.475325 Br
0.476508 0.725558 0.375808 Br
0.724654 0.732564 0.623819 Br
0.626049 0.516118 0.273389 Br
0.377778 0.523815 0.523960 Br
0.527322 0.484748 0.624615 Br
0.275336 0.482482 0.376161 Br
