Cs1 Br1                                 
   1.0000000000000000     
     4.3009740798252993   -0.0000000000000000    0.0000000000000000
     0.0000000000000000    4.3009740798252993   -0.0000000000000000
     0.0000000000000000    0.0000000000000000    4.3009740798252993
   Cs   Br
     1     1
Direct
  0.0000000000000000  0.0000000000000000  0.0000000000000000
  0.5000000000000000  0.5000000000000000  0.5000000000000000

  0.00000000E+00  0.00000000E+00  0.00000000E+00
  0.00000000E+00  0.00000000E+00  0.00000000E+00
