Cs4 Pb4 Br12                            
   1.0000000000000000     
     5.8715648342551399    5.8769663714321041    5.8899679887962222
     5.8715648342551399   -5.8769663714321041   -5.8899679887962222
    -5.8715648342551399    5.8769663714321041   -5.8899679887962222
   Cs   Pb   Br
     4     4    12
Direct
  0.5000000000000000  0.0000000000000000  0.0000000000000000
  0.5000000000000000  0.5000000000000000  0.5000000000000000
  0.0000000000000000  0.0000000000000000  0.5000000000000000
  0.0000000000000000  0.5000000000000000  0.0000000000000000
  0.0000000000000000  0.0000000000000000  0.0000000000000000
  0.0000000000000000  0.5000000000000000  0.5000000000000000
  0.5000000000000000  0.0000000000000000  0.5000000000000000
  0.5000000000000000  0.5000000000000000  0.0000000000000000
  0.2176958241530187  0.9428953479114952  0.2251995237584765
  0.2176958241530187  0.4924963003945493  0.7748004762415235
  0.7823041758469813  0.0571046520885048  0.7748004762415235
  0.7823041758469813  0.5075036996054507  0.2251995237584765
  0.0096419583262204  0.7807996519328384  0.7288423063933749
  0.9903580416737796  0.2192003480671616  0.2711576936066251
  0.5519573455394635  0.7807996519328384  0.2711576936066251
  0.4480426544605365  0.2192003480671616  0.7288423063933749
  0.2855951588636430  0.2748454113780809  0.0604405702417168
  0.2855951588636430  0.7251545886219191  0.5107497474855620
  0.7144048411363570  0.2748454113780809  0.4892502525144380
  0.7144048411363570  0.7251545886219191  0.9395594297582832

  0.00000000E+00  0.00000000E+00  0.00000000E+00
  0.00000000E+00  0.00000000E+00  0.00000000E+00
  0.00000000E+00  0.00000000E+00  0.00000000E+00
  0.00000000E+00  0.00000000E+00  0.00000000E+00
  0.00000000E+00  0.00000000E+00  0.00000000E+00
  0.00000000E+00  0.00000000E+00  0.00000000E+00
  0.00000000E+00  0.00000000E+00  0.00000000E+00
  0.00000000E+00  0.00000000E+00  0.00000000E+00
  0.00000000E+00  0.00000000E+00  0.00000000E+00
  0.00000000E+00  0.00000000E+00  0.00000000E+00
  0.00000000E+00  0.00000000E+00  0.00000000E+00
  0.00000000E+00  0.00000000E+00  0.00000000E+00
  0.00000000E+00  0.00000000E+00  0.00000000E+00
  0.00000000E+00  0.00000000E+00  0.00000000E+00
  0.00000000E+00  0.00000000E+00  0.00000000E+00
  0.00000000E+00  0.00000000E+00  0.00000000E+00
  0.00000000E+00  0.00000000E+00  0.00000000E+00
  0.00000000E+00  0.00000000E+00  0.00000000E+00
  0.00000000E+00  0.00000000E+00  0.00000000E+00
  0.00000000E+00  0.00000000E+00  0.00000000E+00
