Cs4 Pb4 Br12                            
   1.0000000000000000     
     5.8715648342551399    5.8769663714321041    5.8899679887962222
     5.8715648342551399   -5.8769663714321041   -5.8899679887962222
    -5.8715648342551399    5.8769663714321041   -5.8899679887962222
   Cs   Pb   Br
     4     4    12
Direct
  0.5000000000000000 -0.0000000000000000 -0.0000000000000000
  0.5000000000000000  0.5000000000000000  0.5000000000000000
  0.0000000000000000 -0.0000000000000000  0.5000000000000000
  0.0000000000000000  0.5000000000000000 -0.0000000000000000
  0.0000000000000000 -0.0000000000000000 -0.0000000000000000
  0.0000000000000000  0.5000000000000000  0.5000000000000000
  0.5000000000000000 -0.0000000000000000  0.5000000000000000
  0.5000000000000000  0.5000000000000000 -0.0000000000000000
  0.2176958241530209  0.9428953479114941  0.2251995237584732
  0.2176958241530209  0.4924963003945476  0.7748004762415268
  0.7823041758469792  0.0571046520885059  0.7748004762415269
  0.7823041758469792  0.5075036996054524  0.2251995237584732
  0.0096419583262206  0.7807996519328395  0.7288423063933743
  0.9903580416737794  0.2192003480671609  0.2711576936066254
  0.5519573455394651  0.7807996519328395  0.2711576936066254
  0.4480426544605354  0.2192003480671609  0.7288423063933743
  0.2855951588636409  0.2748454113780793  0.0604405702417200
  0.2855951588636409  0.7251545886219207  0.5107497474855613
  0.7144048411363596  0.2748454113780793  0.4892502525144385
  0.7144048411363596  0.7251545886219208  0.9395594297582801

  0.00000000E+00  0.00000000E+00  0.00000000E+00
  0.00000000E+00  0.00000000E+00  0.00000000E+00
  0.00000000E+00  0.00000000E+00  0.00000000E+00
  0.00000000E+00  0.00000000E+00  0.00000000E+00
  0.00000000E+00  0.00000000E+00  0.00000000E+00
  0.00000000E+00  0.00000000E+00  0.00000000E+00
  0.00000000E+00  0.00000000E+00  0.00000000E+00
  0.00000000E+00  0.00000000E+00  0.00000000E+00
  0.00000000E+00  0.00000000E+00  0.00000000E+00
  0.00000000E+00  0.00000000E+00  0.00000000E+00
  0.00000000E+00  0.00000000E+00  0.00000000E+00
  0.00000000E+00  0.00000000E+00  0.00000000E+00
  0.00000000E+00  0.00000000E+00  0.00000000E+00
  0.00000000E+00  0.00000000E+00  0.00000000E+00
  0.00000000E+00  0.00000000E+00  0.00000000E+00
  0.00000000E+00  0.00000000E+00  0.00000000E+00
  0.00000000E+00  0.00000000E+00  0.00000000E+00
  0.00000000E+00  0.00000000E+00  0.00000000E+00
  0.00000000E+00  0.00000000E+00  0.00000000E+00
  0.00000000E+00  0.00000000E+00  0.00000000E+00
