Cs64 Pb64 Br191
1.0
16.840035 0.000000 16.155961
0.000000 23.527616 0.000000
-16.840035 0.000000 16.155961
Cs Pb Br Cs Pb Br
56 56 168 8 8 23
direct
0.886418 0.875574 0.353556 Cs
0.136304 0.875114 0.603606 Cs
0.885920 0.374780 0.352585 Cs
0.135954 0.374796 0.604796 Cs
0.886521 0.875200 0.853899 Cs
0.135933 0.875193 0.103263 Cs
0.385545 0.874881 0.354320 Cs
0.635914 0.874407 0.603422 Cs
0.886016 0.374781 0.853585 Cs
0.135968 0.374872 0.103198 Cs
0.386095 0.875160 0.853297 Cs
0.636123 0.874857 0.103771 Cs
0.386285 0.374765 0.853583 Cs
0.636027 0.374996 0.103129 Cs
0.103841 0.125016 0.386247 Cs
0.353485 0.124991 0.635507 Cs
0.099881 0.625641 0.384941 Cs
0.103469 0.125028 0.886084 Cs
0.353688 0.124980 0.135969 Cs
0.603881 0.124276 0.385597 Cs
0.854044 0.124862 0.636136 Cs
0.104135 0.624992 0.885977 Cs
0.354183 0.625095 0.135642 Cs
0.854316 0.625560 0.636115 Cs
0.603873 0.124957 0.886104 Cs
0.853814 0.124949 0.135846 Cs
0.603725 0.624632 0.886622 Cs
0.853368 0.625081 0.136985 Cs
0.896552 0.875245 0.113896 Cs
0.146316 0.875093 0.363931 Cs
0.896419 0.375009 0.113719 Cs
0.146647 0.374749 0.363460 Cs
0.896739 0.875198 0.614142 Cs
0.146397 0.875229 0.864059 Cs
0.395779 0.875400 0.113441 Cs
0.648143 0.876517 0.362753 Cs
0.890261 0.374354 0.612763 Cs
0.146630 0.374866 0.864158 Cs
0.396095 0.375112 0.113940 Cs
0.396641 0.874294 0.614553 Cs
0.646170 0.875079 0.864133 Cs
0.646863 0.374769 0.864663 Cs
0.113885 0.125013 0.146122 Cs
0.363896 0.124624 0.396352 Cs
0.114040 0.625042 0.147012 Cs
0.114090 0.125039 0.646442 Cs
0.363884 0.124829 0.896578 Cs
0.613902 0.124902 0.146354 Cs
0.864427 0.125022 0.396531 Cs
0.112097 0.625406 0.646257 Cs
0.364058 0.625085 0.897378 Cs
0.614370 0.625385 0.143488 Cs
0.866491 0.626540 0.389586 Cs
0.613919 0.124240 0.646373 Cs
0.864385 0.124857 0.896956 Cs
0.863873 0.625225 0.896469 Cs
0.751042 0.751621 0.249192 Pb
0.000102 0.750617 0.500274 Pb
0.750277 0.249577 0.249725 Pb
1.000028 0.250130 0.500174 Pb
0.750255 0.750713 0.750182 Pb
0.000077 0.749945 0.999950 Pb
0.249427 0.750739 0.249531 Pb
0.502196 0.746255 0.499555 Pb
0.750749 0.248500 0.750850 Pb
0.000037 0.250221 0.999958 Pb
0.249563 0.750368 0.750465 Pb
0.499788 0.750468 0.999814 Pb
0.249898 0.249785 0.750215 Pb
0.500035 0.249763 0.000153 Pb
0.000485 0.750794 0.249679 Pb
0.250183 0.749354 0.499998 Pb
0.000107 0.249836 0.249925 Pb
0.000018 0.750263 0.750260 Pb
0.249850 0.750269 0.999975 Pb
0.499020 0.751251 0.249343 Pb
0.750576 0.750714 0.499917 Pb
0.000090 0.250195 0.750061 Pb
0.249998 0.250013 0.999994 Pb
0.749977 0.249780 0.500007 Pb
0.500112 0.749387 0.750197 Pb
0.750236 0.750312 0.999965 Pb
0.499653 0.248860 0.750708 Pb
0.750146 0.249733 0.000099 Pb
0.000069 0.000374 0.249908 Pb
0.249956 0.999642 0.500061 Pb
0.000313 0.499503 0.249672 Pb
0.000067 0.000260 0.750077 Pb
0.249957 0.000267 0.999938 Pb
0.499814 -0.000044 0.249823 Pb
0.750290 0.000231 0.500163 Pb
0.999990 0.499733 0.750358 Pb
0.249871 0.499984 0.000027 Pb
0.749358 0.504050 0.500255 Pb
0.499970 0.999663 0.750190 Pb
0.750066 -0.000025 0.000021 Pb
0.499460 0.499104 0.750371 Pb
0.750234 0.500149 0.000163 Pb
0.750329 0.000659 0.249862 Pb
0.000140 0.000260 0.500117 Pb
0.749869 0.499196 0.249679 Pb
1.000036 0.499028 0.499767 Pb
0.750126 0.999577 0.750118 Pb
0.000073 0.000130 0.000044 Pb
0.249906 0.000337 0.249906 Pb
0.500169 0.998762 0.500068 Pb
0.750715 0.500159 0.750915 Pb
0.000048 0.500273 0.999931 Pb
0.250020 0.000157 0.750118 Pb
0.500023 0.000027 0.000013 Pb
0.249892 0.499885 0.750506 Pb
0.499894 0.499744 0.000000 Pb
0.984266 0.125291 0.230438 Br
0.235176 0.125374 0.481393 Br
0.983838 0.625100 0.233399 Br
0.230524 0.625049 0.476933 Br
0.984600 0.125205 0.730560 Br
0.234219 0.125221 0.980403 Br
0.484377 0.125369 0.231143 Br
0.734723 0.125828 0.480571 Br
0.983939 0.624984 0.731127 Br
0.234479 0.625057 0.981150 Br
0.487008 0.625567 0.230089 Br
0.484033 0.124085 0.730312 Br
0.734413 0.125005 0.980580 Br
0.734106 0.625071 0.981203 Br
0.230228 0.875369 0.234118 Br
0.482997 0.864633 0.486035 Br
0.230336 0.374746 0.233863 Br
0.230828 0.874993 0.734256 Br
0.480290 0.875134 0.983762 Br
0.732853 0.875944 0.232903 Br
0.981062 0.874993 0.484598 Br
0.230980 0.375128 0.734390 Br
0.480738 0.374929 0.984480 Br
0.729993 0.374833 0.234079 Br
0.977907 0.375135 0.484775 Br
0.729727 0.874738 0.733822 Br
0.980995 0.875033 0.984558 Br
0.980585 0.375331 0.984358 Br
0.770231 0.125493 0.266203 Br
0.019116 0.125304 0.515802 Br
0.763284 0.625302 0.266091 Br
0.016058 0.624118 0.515559 Br
0.770423 0.124233 0.766247 Br
0.019137 0.125222 0.015602 Br
0.270060 0.125101 0.265988 Br
0.517533 0.120569 0.514723 Br
0.768669 0.625045 0.765041 Br
0.020174 0.625093 0.015890 Br
0.269989 0.125073 0.765440 Br
0.519712 0.124977 0.015768 Br
0.266707 0.625055 0.769330 Br
0.518429 0.625096 0.015170 Br
0.015983 0.875425 0.269138 Br
0.266825 0.874213 0.519286 Br
0.015989 0.375038 0.269651 Br
0.015787 0.875075 0.769197 Br
0.265460 0.875201 0.019025 Br
0.514876 0.875508 0.271809 Br
0.765864 0.875639 0.519659 Br
0.016074 0.375143 0.770192 Br
0.265810 0.375110 0.019266 Br
0.753796 0.377524 0.518559 Br
0.515864 0.873925 0.767857 Br
0.765852 0.875036 0.019697 Br
0.516907 0.373877 0.768833 Br
0.765705 0.375080 0.018872 Br
0.874043 0.982295 0.224532 Br
0.124059 0.982082 0.474591 Br
0.873806 0.482291 0.224820 Br
0.121139 0.481978 0.475270 Br
0.873893 0.981951 0.724528 Br
0.123947 0.982194 0.974536 Br
0.374005 0.981940 0.224664 Br
0.623636 0.981941 0.474578 Br
0.873870 0.482358 0.724084 Br
0.123917 0.482039 0.974477 Br
0.373931 0.482291 0.225575 Br
0.374021 0.981893 0.724344 Br
0.623900 0.982001 0.974638 Br
0.623943 0.482197 0.974673 Br
0.974678 0.017985 0.374026 Br
0.224633 0.017883 0.623806 Br
0.974110 0.516325 0.374136 Br
0.223618 0.519612 0.623509 Br
0.974626 0.017902 0.873853 Br
0.224628 0.018091 0.123971 Br
0.474260 0.017073 0.374393 Br
0.724615 0.017967 0.623819 Br
0.974417 0.518061 0.873792 Br
0.224525 0.517580 0.123866 Br
0.474678 0.017849 0.873754 Br
0.724576 0.018196 0.123955 Br
0.474326 0.517699 0.873962 Br
0.724527 0.517743 0.124130 Br
0.025733 0.767837 0.126086 Br
0.275477 0.767796 0.376127 Br
0.025474 0.268027 0.126179 Br
0.025573 0.767961 0.626075 Br
0.275558 0.768242 0.875959 Br
0.523439 0.769298 0.125930 Br
0.775200 0.768728 0.375797 Br
0.025209 0.268256 0.626026 Br
0.275628 0.267956 0.876050 Br
0.525551 0.268112 0.126343 Br
0.775391 0.268202 0.376390 Br
0.527249 0.763875 0.624999 Br
0.775762 0.768096 0.875772 Br
0.775737 0.267456 0.876269 Br
0.126186 0.231989 0.275633 Br
0.376350 0.233936 0.525095 Br
0.126233 0.732295 0.275782 Br
0.126267 0.232029 0.775406 Br
0.376204 0.232042 0.025528 Br
0.626146 0.232092 0.275775 Br
0.875995 0.233206 0.526138 Br
0.126008 0.732285 0.775460 Br
0.376062 0.732206 0.025295 Br
0.876439 0.732606 0.525074 Br
0.626285 0.232243 0.774760 Br
0.876083 0.232148 0.025584 Br
0.626152 0.732637 0.777097 Br
0.876103 0.731783 0.025684 Br
0.874686 0.767742 0.224288 Br
0.125057 0.767908 0.475002 Br
0.873862 0.268157 0.224509 Br
0.123945 0.268648 0.474614 Br
0.873750 0.767998 0.724441 Br
0.123888 0.767975 0.974366 Br
0.373688 0.768112 0.224543 Br
0.624295 0.767846 0.471800 Br
0.874005 0.267622 0.724347 Br
0.123965 0.267969 0.974571 Br
0.374076 0.268275 0.224755 Br
0.374019 0.767761 0.724680 Br
0.623881 0.767912 0.974840 Br
0.623916 0.267826 0.974605 Br
0.974574 0.232172 0.374016 Br
0.224718 0.232311 0.623787 Br
0.975028 0.734798 0.373984 Br
0.224242 0.731569 0.623822 Br
0.974520 0.232102 0.873854 Br
0.224639 0.231951 0.123993 Br
0.474284 0.231895 0.374064 Br
0.724596 0.231848 0.624123 Br
0.974528 0.732044 0.873862 Br
0.224382 0.732439 0.123821 Br
0.474460 0.231798 0.874059 Br
0.724485 0.231945 0.124123 Br
0.474646 0.731915 0.873437 Br
0.725279 0.732209 0.123637 Br
0.126235 0.018189 0.275587 Br
0.376455 0.016314 0.525794 Br
0.125994 0.517647 0.276132 Br
0.126196 0.018035 0.775444 Br
0.376188 0.018037 0.025454 Br
0.626161 0.017825 0.275265 Br
0.876045 0.017970 0.525478 Br
0.126085 0.517697 0.775118 Br
0.376155 0.517764 0.025524 Br
0.867873 0.515246 0.523861 Br
0.626078 0.018036 0.775373 Br
0.876101 0.017896 0.025466 Br
0.626155 0.516096 0.776168 Br
0.876088 0.518320 0.025821 Br
0.025529 0.982201 0.126132 Br
0.275527 0.982083 0.376204 Br
0.025586 0.482182 0.126231 Br
0.025580 0.982102 0.626003 Br
0.275590 0.982109 0.876031 Br
0.525401 0.981814 0.126297 Br
0.775588 0.982247 0.376184 Br
0.023028 0.481163 0.625426 Br
0.275586 0.481830 0.875739 Br
0.525203 0.482072 0.126797 Br
0.771914 0.479223 0.376704 Br
0.525585 0.981660 0.625741 Br
0.775451 0.981807 0.876051 Br
0.776091 0.482714 0.876033 Br
0.386705 0.374723 0.354568 Cs
0.635239 0.368174 0.616102 Cs
0.610923 0.633174 0.372448 Cs
0.349772 0.627693 0.641629 Cs
0.396799 0.372173 0.613778 Cs
0.646674 0.370501 0.363127 Cs
0.618131 0.624883 0.655126 Cs
0.359301 0.625016 0.389667 Cs
0.249934 0.249677 0.249871 Pb
0.500271 0.248192 0.499348 Pb
0.499846 0.250044 0.249642 Pb
0.249723 0.250570 0.499915 Pb
0.499950 0.500070 0.250054 Pb
0.247400 0.501707 0.500096 Pb
0.249592 0.499319 0.249640 Pb
0.493095 0.500604 0.502866 Pb
0.483842 0.623789 0.729580 Br
0.740233 0.626569 0.473067 Br
0.735232 0.374472 0.737664 Br
0.493334 0.374202 0.483127 Br
0.266164 0.624969 0.261899 Br
0.515680 0.375399 0.270989 Br
0.266358 0.376594 0.519527 Br
0.373875 0.481336 0.723650 Br
0.478123 0.520949 0.376281 Br
0.724144 0.517202 0.623482 Br
0.523518 0.263981 0.625830 Br
0.275637 0.268215 0.376209 Br
0.626208 0.740478 0.268262 Br
0.378016 0.725704 0.523631 Br
0.374129 0.267815 0.724718 Br
0.623870 0.263819 0.474287 Br
0.475618 0.728038 0.374157 Br
0.724958 0.731652 0.623464 Br
0.626078 0.514142 0.276068 Br
0.374152 0.528930 0.525030 Br
0.522457 0.476051 0.626447 Br
0.275429 0.481977 0.376541 Br
0.579808 0.585602 0.510210 Br
