Cs64 Pb64 Br191
1.0
16.840035 0.000000 16.155961
0.000000 23.527616 0.000000
-16.840035 0.000000 16.155961
Cs Pb Br Cs Pb Br
56 56 168 8 8 23
Selective dynamics
direct
0.885919 0.875134 0.353659 F F F
0.135486 0.875245 0.603830 F F F
0.886574 0.374701 0.353552 F F F
0.137416 0.374521 0.604531 F F F
0.886275 0.875142 0.854034 F F F
0.135584 0.875211 0.102961 F F F
0.386073 0.875222 0.354537 F F F
0.635257 0.874171 0.603571 F F F
0.885999 0.374857 0.853766 F F F
0.135947 0.374725 0.103480 F F F
0.386270 0.875126 0.853575 F F F
0.636177 0.875058 0.103545 F F F
0.385729 0.374730 0.854153 F F F
0.636208 0.374850 0.103487 F F F
0.103336 0.125128 0.385985 F F F
0.352705 0.123321 0.637378 F F F
0.104256 0.625978 0.385488 F F F
0.103478 0.124877 0.886137 F F F
0.353922 0.124842 0.135883 F F F
0.603751 0.125074 0.385143 F F F
0.853667 0.125009 0.636117 F F F
0.103964 0.625030 0.886206 F F F
0.353486 0.625116 0.135131 F F F
0.853734 0.625360 0.636580 F F F
0.603985 0.124750 0.886519 F F F
0.853526 0.124875 0.135932 F F F
0.603869 0.624828 0.886869 F F F
0.853714 0.625147 0.136353 F F F
0.896542 0.875077 0.113894 F F F
0.146122 0.875488 0.363893 F F F
0.896282 0.374924 0.113983 F F F
0.146142 0.374235 0.362244 F F F
0.895958 0.875141 0.613907 F F F
0.146089 0.875176 0.864206 F F F
0.395876 0.874919 0.113953 F F F
0.646591 0.873776 0.365586 F F F
0.898096 0.374571 0.614237 F F F
0.146383 0.374859 0.863699 F F F
0.396124 0.374958 0.113296 F F F
0.395989 0.876465 0.614570 F F F
0.646188 0.875065 0.864101 F F F
0.645685 0.374840 0.864157 F F F
0.113577 0.124857 0.146077 F F F
0.363805 0.124842 0.396538 F F F
0.114557 0.625148 0.146828 F F F
0.113960 0.125006 0.646467 F F F
0.363888 0.125027 0.896309 F F F
0.614064 0.124836 0.146473 F F F
0.863899 0.125059 0.396422 F F F
0.113495 0.625462 0.647942 F F F
0.363997 0.624961 0.896965 F F F
0.613792 0.625027 0.145832 F F F
0.864546 0.625391 0.394822 F F F
0.614476 0.124806 0.646394 F F F
0.864098 0.124915 0.896723 F F F
0.863779 0.625105 0.896212 F F F
0.750222 0.750446 0.249723 F F F
0.000003 0.750462 0.500032 F F F
0.750173 0.249614 0.249766 F F F
0.000153 0.250284 0.500043 F F F
0.750245 0.750689 0.750247 F F F
0.999997 0.749822 0.000024 F F F
0.249099 0.751932 0.249213 F F F
0.496461 0.748508 0.500397 F F F
0.750472 0.249344 0.750379 F F F
0.999963 0.250058 0.000009 F F F
0.249569 0.750616 0.750310 F F F
0.499953 0.750088 0.999919 F F F
0.249228 0.249261 0.750535 F F F
0.500120 0.249664 0.000168 F F F
0.000024 0.750393 0.249907 F F F
0.249503 0.750937 0.499924 F F F
0.999837 0.249687 0.249821 F F F
0.999989 0.750308 0.750172 F F F
0.249808 0.750352 0.999880 F F F
0.500119 0.750281 0.249520 F F F
0.750282 0.749818 0.500131 F F F
0.999806 0.249791 0.750103 F F F
0.249870 0.249716 0.999970 F F F
0.749995 0.250257 0.499997 F F F
0.499926 0.749482 0.750228 F F F
0.750121 0.750031 0.000096 F F F
0.500695 0.248683 0.750602 F F F
0.750106 0.249830 0.000055 F F F
0.999933 0.000045 0.249945 F F F
0.249507 0.000550 0.499876 F F F
0.000099 0.499867 0.249799 F F F
0.999943 0.000072 0.750051 F F F
0.249938 0.000102 0.999989 F F F
0.500092 0.999610 0.249904 F F F
0.750088 0.000453 0.500046 F F F
0.999941 0.500037 0.750283 F F F
0.249804 0.499714 0.999915 F F F
0.752884 0.499913 0.499839 F F F
0.500222 0.999808 0.750300 F F F
0.750070 0.999863 0.000076 F F F
0.499729 0.499867 0.749768 F F F
0.750192 0.499903 0.000067 F F F
0.750002 0.999889 0.250001 F F F
0.999928 0.000379 0.500000 F F F
0.750382 0.499918 0.249407 F F F
0.000165 0.500910 0.500583 F F F
0.750103 0.999725 0.750086 F F F
0.999953 0.999998 0.000002 F F F
0.249908 0.000478 0.249905 F F F
0.500327 0.001090 0.500247 F F F
0.750484 0.499789 0.750414 F F F
0.000005 0.500105 0.000040 F F F
0.249713 0.999746 0.750256 F F F
0.499985 0.999894 0.000052 F F F
0.249951 0.500399 0.750470 F F F
0.500031 0.499669 0.999967 F F F
0.984051 0.124969 0.230514 F F F
0.233968 0.126474 0.480717 F F F
0.984793 0.624956 0.231293 F F F
0.238277 0.625428 0.477633 F F F
0.984195 0.125030 0.730365 F F F
0.234194 0.124971 0.980329 F F F
0.484587 0.124641 0.231469 F F F
0.733268 0.125853 0.480396 F F F
0.983892 0.625033 0.731149 F F F
0.234518 0.624907 0.981609 F F F
0.483853 0.624784 0.231435 F F F
0.484815 0.124159 0.729694 F F F
0.734418 0.124882 0.980957 F F F
0.734369 0.624915 0.981003 F F F
0.229585 0.875829 0.233499 F F F
0.486194 0.866905 0.486368 F F F
0.231986 0.374496 0.234151 F F F
0.230025 0.874860 0.734165 F F F
0.480407 0.874851 0.984368 F F F
0.729720 0.874971 0.235018 F F F
0.980507 0.875382 0.484484 F F F
0.233325 0.375065 0.734040 F F F
0.480689 0.374753 0.984012 F F F
0.732141 0.374978 0.233117 F F F
0.982524 0.376181 0.483793 F F F
0.729454 0.874866 0.733692 F F F
0.980969 0.874883 0.984475 F F F
0.980589 0.375119 0.984466 F F F
0.769282 0.124951 0.265954 F F F
0.019246 0.125745 0.515829 F F F
0.767883 0.625005 0.266223 F F F
0.021305 0.625372 0.515882 F F F
0.769675 0.124605 0.765923 F F F
0.018986 0.125038 0.015604 F F F
0.270374 0.124989 0.266165 F F F
0.518636 0.123418 0.514542 F F F
0.767841 0.625037 0.765245 F F F
0.019911 0.624921 0.015991 F F F
0.267730 0.124607 0.766652 F F F
0.519484 0.124784 0.016049 F F F
0.266905 0.625185 0.768335 F F F
0.518593 0.624860 0.015672 F F F
0.015473 0.875109 0.269629 F F F
0.264707 0.876044 0.519273 F F F
0.015453 0.374862 0.269023 F F F
0.015618 0.875047 0.769378 F F F
0.265616 0.875084 0.019268 F F F
0.515670 0.874504 0.271457 F F F
0.764186 0.875247 0.519065 F F F
0.015473 0.375055 0.769011 F F F
0.265656 0.374867 0.018935 F F F
0.766651 0.375612 0.520078 F F F
0.516078 0.874130 0.767561 F F F
0.765805 0.874854 0.019596 F F F
0.514002 0.374303 0.767832 F F F
0.765695 0.374962 0.019255 F F F
0.873881 0.981927 0.224594 F F F
0.123992 0.982402 0.474479 F F F
0.874057 0.482258 0.224626 F F F
0.132282 0.482568 0.475191 F F F
0.873806 0.981901 0.724518 F F F
0.123963 0.982169 0.974574 F F F
0.373988 0.981689 0.224822 F F F
0.623508 0.982450 0.474566 F F F
0.873904 0.482194 0.724130 F F F
0.123966 0.481921 0.974335 F F F
0.373853 0.483174 0.223977 F F F
0.373929 0.982264 0.724930 F F F
0.623864 0.981969 0.974600 F F F
0.623926 0.482071 0.974595 F F F
0.974459 0.018080 0.374048 F F F
0.224494 0.017974 0.623863 F F F
0.975837 0.518091 0.374647 F F F
0.225845 0.520713 0.623226 F F F
0.974485 0.017938 0.873923 F F F
0.224607 0.018216 0.124009 F F F
0.474216 0.017230 0.374651 F F F
0.724465 0.017930 0.623882 F F F
0.974450 0.517976 0.873875 F F F
0.223706 0.516215 0.123959 F F F
0.474620 0.017889 0.873876 F F F
0.724457 0.017851 0.124020 F F F
0.474900 0.517796 0.872768 F F F
0.724547 0.518083 0.124168 F F F
0.025507 0.767926 0.126152 F F F
0.275716 0.768240 0.375954 F F F
0.025433 0.267900 0.126108 F F F
0.025306 0.767972 0.626065 F F F
0.275533 0.768224 0.875775 F F F
0.525233 0.768084 0.126310 F F F
0.775204 0.767824 0.376218 F F F
0.025760 0.268192 0.625969 F F F
0.275190 0.267937 0.876175 F F F
0.525488 0.268001 0.126262 F F F
0.775497 0.268185 0.376195 F F F
0.527794 0.762300 0.624989 F F F
0.775513 0.768094 0.876011 F F F
0.775477 0.267772 0.876074 F F F
0.126202 0.232026 0.275492 F F F
0.376327 0.228938 0.526555 F F F
0.125909 0.733339 0.275968 F F F
0.125643 0.232130 0.775731 F F F
0.376092 0.232008 0.025378 F F F
0.626061 0.232269 0.275538 F F F
0.875686 0.232406 0.525352 F F F
0.126000 0.732332 0.775716 F F F
0.376078 0.732272 0.025397 F F F
0.876016 0.731858 0.525480 F F F
0.626180 0.231884 0.775705 F F F
0.876023 0.232082 0.025584 F F F
0.625915 0.731831 0.776011 F F F
0.876019 0.731923 0.025536 F F F
0.873798 0.767980 0.224519 F F F
0.123937 0.768070 0.474193 F F F
0.873988 0.267844 0.224590 F F F
0.124373 0.269030 0.474993 F F F
0.873770 0.768004 0.724498 F F F
0.123955 0.767915 0.974374 F F F
0.373832 0.767500 0.225586 F F F
0.622654 0.761043 0.475259 F F F
0.873809 0.267879 0.724275 F F F
0.123964 0.268004 0.974504 F F F
0.374042 0.267322 0.223495 F F F
0.373976 0.768394 0.724576 F F F
0.623867 0.767916 0.974620 F F F
0.623913 0.267915 0.974655 F F F
0.974616 0.232124 0.374098 F F F
0.224864 0.232129 0.624000 F F F
0.974697 0.732203 0.374084 F F F
0.223055 0.732716 0.623614 F F F
0.974410 0.232101 0.873851 F F F
0.224364 0.231811 0.124159 F F F
0.474299 0.232116 0.374275 F F F
0.724454 0.232184 0.623921 F F F
0.974463 0.732023 0.873944 F F F
0.223988 0.733583 0.123711 F F F
0.475097 0.231713 0.873913 F F F
0.724450 0.231947 0.124089 F F F
0.474583 0.731925 0.873661 F F F
0.724477 0.732037 0.124034 F F F
0.126104 0.018195 0.275568 F F F
0.376425 0.017333 0.525389 F F F
0.126193 0.516115 0.276921 F F F
0.125952 0.017863 0.775497 F F F
0.376099 0.017940 0.025415 F F F
0.625940 0.017722 0.275644 F F F
0.875848 0.018083 0.525456 F F F
0.126107 0.517610 0.775457 F F F
0.376015 0.517706 0.025334 F F F
0.880315 0.518326 0.525394 F F F
0.625955 0.018043 0.775501 F F F
0.875993 0.017863 0.025503 F F F
0.625896 0.517602 0.775576 F F F
0.876058 0.518104 0.025610 F F F
0.025395 0.982115 0.126139 F F F
0.275515 0.982039 0.376138 F F F
0.025652 0.482111 0.126266 F F F
0.025279 0.982218 0.625978 F F F
0.275502 0.981899 0.875990 F F F
0.525294 0.981769 0.126369 F F F
0.775292 0.982052 0.376211 F F F
0.026203 0.481908 0.625943 F F F
0.275545 0.482052 0.875639 F F F
0.525507 0.481882 0.125287 F F F
0.776394 0.482058 0.376232 F F F
0.525538 0.982196 0.625697 F F F
0.775369 0.981860 0.875990 F F F
0.775557 0.482214 0.876068 F F F
0.382998 0.373948 0.346433 F F F
0.639281 0.374453 0.607336 F F F
0.607632 0.625295 0.381991 F F F
0.350149 0.629615 0.639443 F F F
0.396211 0.367860 0.622422 F F F
0.649613 0.375172 0.362524 F F F
0.617818 0.624620 0.653714 F F F
0.360806 0.627292 0.381011 F F F
0.249857 0.249078 0.249768 F F F
0.499125 0.250050 0.499764 F F F
0.500170 0.249751 0.249796 F F F
0.250314 0.250535 0.500178 F F F
0.500304 0.499404 0.249593 F F F
0.249724 0.501016 0.499789 F F F
0.249325 0.499293 0.249209 F F F
0.502707 0.491642 0.497036 F F F
0.483958 0.624298 0.729378 F F F
0.735712 0.624813 0.480220 F F F
0.732194 0.374768 0.736273 F F F
0.463171 0.374118 0.485076 F F F
0.261525 0.625282 0.258874 F F F
0.516985 0.374768 0.270453 F F F
0.269623 0.377028 0.522578 F F F
0.373860 0.483639 0.722936 F F F
0.627941 0.486718 0.472560 F F F
0.476749 0.518955 0.373123 F F F
0.724885 0.517775 0.623684 F F F
0.525642 0.268001 0.625537 F F F
0.275258 0.268065 0.376284 F F F
0.625874 0.732499 0.274569 F F F
0.375271 0.740958 0.530500 F F F
0.373912 0.263050 0.728551 F F F
0.622852 0.272056 0.475644 F F F
0.476159 0.729524 0.374714 F F F
0.724605 0.731783 0.623998 F F F
0.626131 0.517442 0.274711 F F F
0.526131 0.480290 0.623611 F F F
0.277549 0.483092 0.376804 F F F
0.424026 0.581494 0.517652 T T T