Cs4 Pb4 Br12                            
   1.0000000000000000     
     8.6726181258150437    0.0000000000000000    0.0000000000000000
     0.0000000000000000   11.8214458624860086    0.0000000000000000
     0.0000000000000000    0.0000000000000000    7.8254112323614571
   Cs   Pb   Br
     4     4    12
Direct
  0.0722203203358376  0.2500000000000000  0.4708717982016211
  0.4277796796641766  0.7500000000000000  0.9708717982016211
  0.5722203203358305  0.2500000000000000  0.0291282017983789
  0.9277796796641695  0.7500000000000000  0.5291282017983789
  0.0000000000000000  0.0000000000000000  0.0000000000000000
  0.5000000000000000  0.0000000000000000  0.5000000000000000
  0.5000000000000000  0.5000000000000000  0.5000000000000000
  0.0000000000000000  0.5000000000000000  0.0000000000000000
  0.5107765149445385  0.7500000000000000  0.4375573838314395
  0.9892234850554615  0.2500000000000000  0.9375573838314395
  0.0107765149445385  0.7500000000000000  0.0624426161685605
  0.4892234850554615  0.2500000000000000  0.5624426161685605
  0.3009708905331152  0.4662679944876373  0.1887778752236358
  0.1990291094668919  0.5337320055123556  0.6887778752236358
  0.8009708905331152  0.0337320055123556  0.3112221247763642
  0.6990291094668848  0.9662679944876444  0.8112221247763642
  0.3009708905331152  0.0337320055123556  0.1887778752236358
  0.1990291094668919  0.9662679944876444  0.6887778752236358
  0.6990291094668848  0.5337320055123556  0.8112221247763642
  0.8009708905331152  0.4662679944876373  0.3112221247763642

  0.00000000E+00  0.00000000E+00  0.00000000E+00
  0.00000000E+00  0.00000000E+00  0.00000000E+00
  0.00000000E+00  0.00000000E+00  0.00000000E+00
  0.00000000E+00  0.00000000E+00  0.00000000E+00
  0.00000000E+00  0.00000000E+00  0.00000000E+00
  0.00000000E+00  0.00000000E+00  0.00000000E+00
  0.00000000E+00  0.00000000E+00  0.00000000E+00
  0.00000000E+00  0.00000000E+00  0.00000000E+00
  0.00000000E+00  0.00000000E+00  0.00000000E+00
  0.00000000E+00  0.00000000E+00  0.00000000E+00
  0.00000000E+00  0.00000000E+00  0.00000000E+00
  0.00000000E+00  0.00000000E+00  0.00000000E+00
  0.00000000E+00  0.00000000E+00  0.00000000E+00
  0.00000000E+00  0.00000000E+00  0.00000000E+00
  0.00000000E+00  0.00000000E+00  0.00000000E+00
  0.00000000E+00  0.00000000E+00  0.00000000E+00
  0.00000000E+00  0.00000000E+00  0.00000000E+00
  0.00000000E+00  0.00000000E+00  0.00000000E+00
  0.00000000E+00  0.00000000E+00  0.00000000E+00
  0.00000000E+00  0.00000000E+00  0.00000000E+00
