Cs64 Pb64 Br191
1.0
16.840035 0.000000 16.155961
0.000000 23.527616 0.000000
-16.840035 0.000000 16.155961
Cs Pb Br Cs Pb Br
56 56 168 8 8 23
Selective dynamics
direct
0.883195 0.871179 0.356981 F F F
0.135307 0.872107 0.603617 F F F
0.885567 0.375176 0.353225 F F F
0.136403 0.375000 0.604558 F F F
0.886043 0.876486 0.853756 F F F
0.136199 0.875153 0.103845 F F F
0.384127 0.875001 0.352756 F F F
0.639355 0.882358 0.623509 F F F
0.886886 0.374744 0.854308 F F F
0.135974 0.374828 0.103721 F F F
0.386582 0.875191 0.853614 F F F
0.636112 0.874924 0.103665 F F F
0.385914 0.374869 0.853084 F F F
0.636349 0.375008 0.104740 F F F
0.103544 0.124652 0.386272 F F F
0.353716 0.124569 0.635856 F F F
0.103971 0.625434 0.388906 F F F
0.103817 0.124972 0.886475 F F F
0.352824 0.124905 0.135719 F F F
0.604575 0.124837 0.386065 F F F
0.854623 0.124920 0.635589 F F F
0.103840 0.625080 0.885680 F F F
0.355642 0.624954 0.135852 F F F
0.860974 0.628518 0.638752 F F F
0.603972 0.124554 0.885529 F F F
0.856970 0.125221 0.136096 F F F
0.603645 0.624959 0.888747 F F F
0.853165 0.624843 0.138309 F F F
0.895294 0.874149 0.114583 F F F
0.145715 0.871873 0.367178 F F F
0.896397 0.374876 0.114160 F F F
0.146207 0.375062 0.364300 F F F
0.896361 0.873568 0.614676 F F F
0.146621 0.875146 0.863991 F F F
0.396263 0.874970 0.114130 F F F
0.646772 0.884972 0.353219 F F F
0.897080 0.375159 0.614868 F F F
0.146566 0.374830 0.864202 F F F
0.394905 0.373672 0.112277 F F F
0.394888 0.872756 0.615130 F F F
0.646302 0.875747 0.866726 F F F
0.645725 0.375011 0.864181 F F F
0.114022 0.124816 0.146142 F F F
0.363770 0.124515 0.396135 F F F
0.113917 0.624999 0.146545 F F F
0.113950 0.124728 0.645676 F F F
0.363987 0.124966 0.896535 F F F
0.613353 0.125169 0.144346 F F F
0.866121 0.124545 0.399406 F F F
0.114676 0.625520 0.646116 F F F
0.363831 0.625065 0.896531 F F F
0.614483 0.624813 0.142623 F F F
0.864567 0.625851 0.390824 F F F
0.613992 0.124973 0.645631 F F F
0.864716 0.125388 0.897650 F F F
0.864206 0.624801 0.896589 F F F
0.749898 0.750869 0.250138 F F F
0.993065 0.747510 0.500549 F F F
0.750884 0.247870 0.249767 F F F
0.000150 0.249974 0.500095 F F F
0.750910 0.750363 0.754158 F F F
0.000065 0.749931 0.000138 F F F
0.249297 0.749981 0.249532 F F F
0.513749 0.752284 0.500318 F F F
0.750263 0.250693 0.750342 F F F
0.000180 0.250023 0.000144 F F F
0.250204 0.750008 0.750557 F F F
0.499784 0.750280 0.000024 F F F
0.250036 0.249511 0.750170 F F F
0.499987 0.250074 0.999908 F F F
0.000772 0.750076 0.250011 F F F
0.253026 0.749147 0.500293 F F F
0.000274 0.249733 0.250182 F F F
0.000364 0.750583 0.750914 F F F
0.249870 0.750142 0.999981 F F F
0.499514 0.750448 0.249663 F F F
0.724696 0.751389 0.501123 F F F
0.000170 0.249632 0.750144 F F F
0.249925 0.249824 0.999940 F F F
0.749795 0.247161 0.499847 F F F
0.500274 0.750063 0.750506 F F F
0.750556 0.749726 0.000863 F F F
0.500003 0.250037 0.750221 F F F
0.750075 0.249966 0.000114 F F F
0.000613 0.999289 0.250595 F F F
0.250035 0.999465 0.500181 F F F
0.000921 0.499873 0.250171 F F F
0.000477 0.000276 0.750088 F F F
0.249983 0.999765 0.000010 F F F
0.499565 0.000790 0.249460 F F F
0.750272 0.995354 0.500625 F F F
0.000453 0.499362 0.750496 F F F
0.249763 0.500174 0.999959 F F F
0.749637 0.497898 0.500444 F F F
0.499637 0.000531 0.750234 F F F
0.750448 0.000740 0.000450 F F F
0.500159 0.500779 0.750232 F F F
0.750481 0.499610 0.999693 F F F
0.752711 0.001316 0.249343 F F F
0.000076 0.998900 0.500178 F F F
0.750787 0.497673 0.247506 F F F
0.999902 0.499616 0.499956 F F F
0.752544 0.002557 0.751350 F F F
0.000120 0.999599 0.000146 F F F
0.249672 0.999812 0.250131 F F F
0.499682 0.996427 0.499272 F F F
0.750336 0.499640 0.750288 F F F
0.000151 0.500197 0.000177 F F F
0.249948 0.999855 0.750037 F F F
0.499846 0.000178 0.000140 F F F
0.250080 0.499758 0.750358 F F F
0.499539 0.499348 0.999732 F F F
0.985680 0.124501 0.232437 F F F
0.234554 0.124563 0.481358 F F F
0.983756 0.624622 0.231916 F F F
0.235579 0.624142 0.481534 F F F
0.984531 0.125056 0.730479 F F F
0.234413 0.124872 0.981288 F F F
0.483047 0.124702 0.229809 F F F
0.735946 0.126053 0.483781 F F F
0.987428 0.624893 0.734119 F F F
0.234193 0.625129 0.980867 F F F
0.488608 0.623755 0.231305 F F F
0.484609 0.125513 0.730593 F F F
0.733832 0.125391 0.980654 F F F
0.734248 0.624851 0.981732 F F F
0.229619 0.874650 0.235834 F F F
0.473543 0.869373 0.485004 F F F
0.230496 0.374709 0.234670 F F F
0.231301 0.874618 0.733777 F F F
0.481368 0.874971 0.984214 F F F
0.736619 0.875486 0.230014 F F F
0.981268 0.873639 0.484858 F F F
0.231806 0.374693 0.734494 F F F
0.480398 0.374859 0.983064 F F F
0.735559 0.373124 0.233033 F F F
0.979357 0.374785 0.484065 F F F
0.739589 0.876242 0.744017 F F F
0.980055 0.874789 0.984832 F F F
0.981231 0.375062 0.984825 F F F
0.774413 0.124372 0.267551 F F F
0.016791 0.124518 0.515720 F F F
0.759453 0.623980 0.267047 F F F
0.017670 0.623822 0.517901 F F F
0.771539 0.126702 0.766415 F F F
0.018346 0.124866 0.016070 F F F
0.269090 0.124700 0.266013 F F F
0.516355 0.124406 0.514471 F F F
0.769132 0.625182 0.764354 F F F
0.019840 0.624982 0.015798 F F F
0.269896 0.124630 0.765841 F F F
0.518722 0.125103 0.014896 F F F
0.268312 0.624712 0.766695 F F F
0.516869 0.624691 0.016310 F F F
0.014425 0.874296 0.272596 F F F
0.265938 0.874125 0.519232 F F F
0.015877 0.374810 0.269892 F F F
0.016017 0.875239 0.769518 F F F
0.265993 0.874948 0.019576 F F F
0.513117 0.874936 0.267766 F F F
0.767274 0.871748 0.521135 F F F
0.016244 0.374699 0.769290 F F F
0.265032 0.375016 0.018413 F F F
0.766349 0.381417 0.517999 F F F
0.517639 0.875512 0.767563 F F F
0.765313 0.875215 0.018293 F F F
0.516023 0.375823 0.767013 F F F
0.765823 0.375096 0.019753 F F F
0.874760 0.982021 0.224403 F F F
0.123926 0.981940 0.474770 F F F
0.875239 0.482537 0.224552 F F F
0.124080 0.482464 0.475707 F F F
0.874960 0.982974 0.723271 F F F
0.123984 0.981967 0.974549 F F F
0.374118 0.982113 0.224471 F F F
0.623627 0.986815 0.472690 F F F
0.873897 0.482390 0.724574 F F F
0.123866 0.482102 0.974426 F F F
0.373147 0.480448 0.223207 F F F
0.374423 0.981819 0.724515 F F F
0.624032 0.982842 0.975629 F F F
0.623946 0.482074 0.975366 F F F
0.974435 0.017335 0.374329 F F F
0.224678 0.017762 0.624037 F F F
0.974494 0.518169 0.374307 F F F
0.224805 0.517844 0.623958 F F F
0.974543 0.017990 0.874046 F F F
0.224469 0.017731 0.124080 F F F
0.474480 0.017245 0.374046 F F F
0.725462 0.018064 0.624480 F F F
0.974467 0.517632 0.874128 F F F
0.224389 0.517843 0.124073 F F F
0.474703 0.017863 0.873773 F F F
0.726299 0.020175 0.124782 F F F
0.474664 0.518113 0.873338 F F F
0.725097 0.517884 0.123403 F F F
0.025752 0.768193 0.126552 F F F
0.275512 0.767419 0.376051 F F F
0.025464 0.267775 0.126208 F F F
0.021453 0.766699 0.626255 F F F
0.275861 0.768245 0.876290 F F F
0.525086 0.767820 0.126024 F F F
0.765270 0.764878 0.377040 F F F
0.025543 0.268081 0.626007 F F F
0.275652 0.267756 0.876038 F F F
0.525429 0.268189 0.126254 F F F
0.775672 0.267319 0.376509 F F F
0.530357 0.768422 0.626507 F F F
0.778804 0.767058 0.877172 F F F
0.775428 0.268414 0.876008 F F F
0.126257 0.232009 0.275858 F F F
0.376471 0.232557 0.525632 F F F
0.126233 0.730788 0.276732 F F F
0.126118 0.231898 0.775530 F F F
0.376133 0.232054 0.025545 F F F
0.626291 0.231318 0.274920 F F F
0.875517 0.233764 0.526582 F F F
0.126618 0.732526 0.775027 F F F
0.376068 0.732307 0.025610 F F F
0.870030 0.728409 0.517452 F F F
0.626152 0.231933 0.775331 F F F
0.875996 0.232321 0.025482 F F F
0.626716 0.734523 0.780481 F F F
0.876114 0.731044 0.027081 F F F
0.874367 0.765626 0.226566 F F F
0.126876 0.763644 0.479366 F F F
0.874278 0.267646 0.224524 F F F
0.123956 0.267941 0.474766 F F F
0.874270 0.766924 0.726213 F F F
0.123900 0.768109 0.974517 F F F
0.373600 0.767471 0.225327 F F F
0.621924 0.816629 0.483815 F F F
0.873926 0.268281 0.724499 F F F
0.124007 0.267760 0.974554 F F F
0.374173 0.267964 0.224676 F F F
0.375200 0.767498 0.725631 F F F
0.624096 0.767372 0.975293 F F F
0.623964 0.268000 0.974777 F F F
0.974495 0.232284 0.374231 F F F
0.224571 0.231987 0.623955 F F F
0.975024 0.731232 0.374081 F F F
0.227169 0.731607 0.624409 F F F
0.974672 0.232162 0.873986 F F F
0.224505 0.232111 0.124080 F F F
0.474445 0.232103 0.374473 F F F
0.724306 0.232626 0.623804 F F F
0.974464 0.732118 0.874763 F F F
0.224462 0.732111 0.124042 F F F
0.474672 0.232157 0.873804 F F F
0.724839 0.231500 0.124199 F F F
0.474574 0.732061 0.873661 F F F
0.724719 0.731900 0.123736 F F F
0.126292 0.017646 0.275908 F F F
0.376424 0.017290 0.525133 F F F
0.126519 0.518945 0.277034 F F F
0.126461 0.018140 0.775762 F F F
0.376100 0.017827 0.025646 F F F
0.626473 0.021218 0.272132 F F F
0.875447 0.015516 0.526408 F F F
0.126245 0.517454 0.775453 F F F
0.375956 0.517730 0.025310 F F F
0.873647 0.523070 0.523205 F F F
0.626835 0.016906 0.773365 F F F
0.876098 0.017800 0.025809 F F F
0.626329 0.518002 0.778040 F F F
0.875941 0.518367 0.026133 F F F
0.025362 0.981760 0.126287 F F F
0.275331 0.982090 0.376208 F F F
0.025833 0.482146 0.126362 F F F
0.026072 0.981575 0.626189 F F F
0.275729 0.981901 0.876103 F F F
0.525505 0.982018 0.125985 F F F
0.776061 0.982221 0.376644 F F F
0.024847 0.481930 0.626008 F F F
0.275703 0.482025 0.876057 F F F
0.522678 0.479633 0.125645 F F F
0.774099 0.484995 0.376033 F F F
0.523519 0.983730 0.625220 F F F
0.776769 0.985219 0.876831 F F F
0.775983 0.481926 0.875459 F F F
0.384660 0.374699 0.354567 F F F
0.635648 0.374590 0.604169 F F F
0.603272 0.617820 0.361656 F F F
0.350727 0.625360 0.636028 F F F
0.396053 0.375191 0.614980 F F F
0.647208 0.370950 0.360462 F F F
0.620937 0.628312 0.657103 F F F
0.361727 0.627718 0.392538 F F F
0.249829 0.249576 0.249980 F F F
0.500052 0.246696 0.500349 F F F
0.499570 0.249290 0.249626 F F F
0.249747 0.249644 0.500044 F F F
0.497029 0.497045 0.248494 F F F
0.250827 0.499926 0.500262 F F F
0.249119 0.499757 0.249823 F F F
0.502875 0.497903 0.499242 F F F
0.484000 0.625762 0.728612 F F F
0.730009 0.375765 0.733502 F F F
0.482716 0.380942 0.486032 F F F
0.269127 0.624648 0.263597 F F F
0.513670 0.373696 0.271592 F F F
0.266641 0.374667 0.519432 F F F
0.374489 0.482459 0.724405 F F F
0.624666 0.476034 0.471090 F F F
0.475079 0.520810 0.374376 F F F
0.726020 0.520330 0.622911 F F F
0.525524 0.267523 0.625431 F F F
0.275380 0.267684 0.376226 F F F
0.625410 0.739021 0.271236 F F F
0.385438 0.726284 0.521504 F F F
0.374185 0.267809 0.724479 F F F
0.623786 0.267020 0.474641 F F F
0.484245 0.726635 0.376114 F F F
0.725485 0.739251 0.626024 F F F
0.625703 0.504731 0.265865 F F F
0.379123 0.520278 0.523685 F F F
0.528540 0.485849 0.624658 F F F
0.275545 0.482395 0.376185 F F F
0.628139 0.659804 0.504745 T T T