Cs64 Pb64 Br191
1.0
16.840035 0.000000 16.155961
0.000000 23.527616 0.000000
-16.840035 0.000000 16.155961
Cs Pb Br Cs Pb Br
56 56 168 8 8 23
direct
0.886443 0.875586 0.353551 Cs
0.136270 0.875115 0.603651 Cs
0.885844 0.374868 0.352753 Cs
0.135879 0.374918 0.604710 Cs
0.886496 0.875189 0.853906 Cs
0.135923 0.875184 0.103283 Cs
0.385323 0.875003 0.353865 Cs
0.636054 0.874455 0.603525 Cs
0.886027 0.374795 0.853602 Cs
0.135943 0.374891 0.103206 Cs
0.386091 0.875171 0.853322 Cs
0.636143 0.874842 0.103805 Cs
0.386234 0.374770 0.853630 Cs
0.636058 0.375050 0.103211 Cs
0.103815 0.125037 0.386265 Cs
0.353406 0.125060 0.635571 Cs
0.099709 0.625566 0.384890 Cs
0.103445 0.125047 0.886085 Cs
0.353704 0.124995 0.135983 Cs
0.604025 0.124347 0.385520 Cs
0.854026 0.124907 0.636142 Cs
0.104103 0.624970 0.885983 Cs
0.354185 0.625088 0.135625 Cs
0.854317 0.625317 0.635896 Cs
0.603907 0.124961 0.886133 Cs
0.853783 0.124971 0.135875 Cs
0.603812 0.624640 0.886551 Cs
0.853356 0.625045 0.137037 Cs
0.896539 0.875261 0.113910 Cs
0.146278 0.875119 0.363891 Cs
0.896427 0.375000 0.113721 Cs
0.146585 0.374845 0.363581 Cs
0.896701 0.875191 0.614156 Cs
0.146383 0.875230 0.864058 Cs
0.395752 0.875416 0.113424 Cs
0.648553 0.876303 0.362966 Cs
0.889893 0.374582 0.612511 Cs
0.146645 0.374888 0.864179 Cs
0.396061 0.375120 0.113929 Cs
0.396419 0.874545 0.614815 Cs
0.646186 0.875069 0.864128 Cs
0.646872 0.374807 0.864663 Cs
0.113866 0.125022 0.146126 Cs
0.363793 0.124672 0.396289 Cs
0.114021 0.625031 0.147031 Cs
0.114070 0.125062 0.646472 Cs
0.363870 0.124841 0.896604 Cs
0.613936 0.124937 0.146380 Cs
0.864393 0.125059 0.396557 Cs
0.111876 0.625395 0.646207 Cs
0.364046 0.625066 0.897472 Cs
0.614389 0.625315 0.143489 Cs
0.867026 0.626123 0.389439 Cs
0.614083 0.124303 0.646596 Cs
0.864368 0.124876 0.896950 Cs
0.863862 0.625202 0.896441 Cs
0.751079 0.751522 0.249238 Pb
-0.000007 0.750647 0.500267 Pb
0.750275 0.249638 0.249754 Pb
0.999995 0.250180 0.500195 Pb
0.750272 0.750667 0.750152 Pb
0.000070 0.749937 0.999946 Pb
0.249392 0.750737 0.249523 Pb
0.501093 0.748176 0.499312 Pb
0.750769 0.248660 0.750834 Pb
0.000037 0.250230 0.999953 Pb
0.249511 0.750370 0.750494 Pb
0.499798 0.750455 0.999821 Pb
0.249858 0.249823 0.750214 Pb
0.500037 0.249793 0.000159 Pb
0.000448 0.750815 0.249696 Pb
0.249977 0.749422 0.499945 Pb
0.000080 0.249864 0.249941 Pb
-0.000025 0.750252 0.750261 Pb
0.249827 0.750274 0.999983 Pb
0.499048 0.751308 0.249269 Pb
0.750685 0.750805 0.499873 Pb
0.000084 0.250262 0.750047 Pb
0.249986 0.250026 1.000003 Pb
0.750029 0.250086 0.500012 Pb
0.500088 0.749354 0.750206 Pb
0.750251 0.750286 0.999979 Pb
0.499673 0.248908 0.750765 Pb
0.750152 0.249757 0.000109 Pb
0.000047 0.000381 0.249910 Pb
0.249894 0.999700 0.500065 Pb
0.000284 0.499454 0.249637 Pb
0.000049 0.000284 0.750081 Pb
0.249964 0.000268 0.999944 Pb
0.499873 0.000003 0.249820 Pb
0.750267 0.000385 0.500156 Pb
0.999953 0.499724 0.750363 Pb
0.249867 0.499974 0.000014 Pb
0.747607 0.504714 0.500186 Pb
0.499993 0.999688 0.750231 Pb
0.750071 -0.000019 0.000035 Pb
0.499456 0.499060 0.750368 Pb
0.750237 0.500131 0.000182 Pb
0.750340 0.000632 0.249873 Pb
0.000110 0.000305 0.500129 Pb
0.749900 0.499204 0.249851 Pb
0.999719 0.499025 0.499774 Pb
0.750152 0.999612 0.750131 Pb
0.000062 0.000141 0.000045 Pb
0.249874 0.000367 0.249887 Pb
0.500198 0.999596 0.500136 Pb
0.750740 0.500220 0.750937 Pb
0.000028 0.500275 0.999913 Pb
0.249985 0.000196 0.750140 Pb
0.500033 0.000072 0.000028 Pb
0.249831 0.499908 0.750510 Pb
0.499908 0.499754 -0.000000 Pb
0.984250 0.125303 0.230429 Br
0.235173 0.125397 0.481401 Br
0.983826 0.625113 0.233547 Br
0.230183 0.625262 0.476874 Br
0.984595 0.125223 0.730594 Br
0.234206 0.125220 0.980419 Br
0.484423 0.125408 0.231186 Br
0.734714 0.125972 0.480629 Br
0.983842 0.625001 0.731201 Br
0.234458 0.625068 0.981155 Br
0.487004 0.625621 0.230136 Br
0.484042 0.124078 0.730268 Br
0.734414 0.125008 0.980617 Br
0.734119 0.625090 0.981228 Br
0.230264 0.875390 0.234149 Br
0.482311 0.865765 0.485785 Br
0.230329 0.374748 0.233909 Br
0.230879 0.875014 0.734266 Br
0.480308 0.875128 0.983774 Br
0.732881 0.875924 0.232920 Br
0.981029 0.875056 0.484647 Br
0.230998 0.375145 0.734390 Br
0.480697 0.374924 0.984497 Br
0.729842 0.374842 0.234263 Br
0.977827 0.375085 0.484866 Br
0.729772 0.874790 0.733863 Br
0.980977 0.875058 0.984573 Br
0.980595 0.375341 0.984381 Br
0.770155 0.125488 0.266214 Br
0.019120 0.125287 0.515829 Br
0.763510 0.625316 0.266242 Br
0.015910 0.624190 0.515424 Br
0.770365 0.124311 0.766220 Br
0.019133 0.125215 0.015625 Br
0.270066 0.125107 0.265997 Br
0.517836 0.121379 0.514941 Br
0.768740 0.625096 0.765014 Br
0.020147 0.625123 0.015901 Br
0.269963 0.125094 0.765481 Br
0.519719 0.124973 0.015788 Br
0.266677 0.625089 0.769492 Br
0.518477 0.625118 0.015131 Br
0.015988 0.875447 0.269070 Br
0.266858 0.874296 0.519360 Br
0.015973 0.375035 0.269638 Br
0.015780 0.875091 0.769213 Br
0.265465 0.875211 0.019046 Br
0.515025 0.875543 0.271997 Br
0.765826 0.875877 0.519644 Br
0.016138 0.375148 0.770282 Br
0.265796 0.375114 0.019288 Br
0.753546 0.377720 0.518240 Br
0.515848 0.873903 0.767796 Br
0.765826 0.875047 0.019715 Br
0.516851 0.373860 0.769076 Br
0.765701 0.375065 0.018924 Br
0.874044 0.982306 0.224545 Br
0.124086 0.982075 0.474609 Br
0.873825 0.482248 0.224831 Br
0.120356 0.482029 0.475238 Br
0.873888 0.981961 0.724527 Br
0.123940 0.982181 0.974555 Br
0.374025 0.981954 0.224683 Br
0.623555 0.981952 0.474603 Br
0.873893 0.482294 0.724188 Br
0.123929 0.482042 0.974495 Br
0.373942 0.482285 0.225595 Br
0.374031 0.981969 0.724414 Br
0.623887 0.981995 0.974652 Br
0.623928 0.482192 0.974689 Br
0.974673 0.017989 0.374044 Br
0.224647 0.017892 0.623806 Br
0.974167 0.515912 0.374058 Br
0.223429 0.519619 0.623546 Br
0.974615 0.017904 0.873874 Br
0.224623 0.018096 0.123984 Br
0.474316 0.017282 0.374482 Br
0.724582 0.017965 0.623826 Br
0.974409 0.518066 0.873820 Br
0.224514 0.517579 0.123858 Br
0.474668 0.017847 0.873765 Br
0.724560 0.018189 0.123961 Br
0.474333 0.517754 0.874010 Br
0.724554 0.517746 0.124119 Br
0.025731 0.767818 0.126094 Br
0.275497 0.767808 0.376148 Br
0.025480 0.268023 0.126190 Br
0.025557 0.767963 0.626076 Br
0.275553 0.768270 0.875963 Br
0.523371 0.769336 0.125978 Br
0.775213 0.768843 0.375810 Br
0.025228 0.268255 0.626046 Br
0.275624 0.267945 0.876060 Br
0.525548 0.268144 0.126403 Br
0.775371 0.268195 0.376411 Br
0.527110 0.763988 0.624731 Br
0.775706 0.768077 0.875788 Br
0.775708 0.267504 0.876276 Br
0.126192 0.231983 0.275636 Br
0.376401 0.234028 0.525086 Br
0.126242 0.732307 0.275810 Br
0.126265 0.232048 0.775417 Br
0.376208 0.232037 0.025527 Br
0.626124 0.232140 0.275793 Br
0.875964 0.233248 0.526156 Br
0.126000 0.732289 0.775482 Br
0.376074 0.732207 0.025277 Br
0.876392 0.732823 0.525185 Br
0.626260 0.232236 0.774782 Br
0.876071 0.232147 0.025596 Br
0.626080 0.732519 0.776731 Br
0.876101 0.731782 0.025708 Br
0.874667 0.767749 0.224267 Br
0.124979 0.767981 0.474952 Br
0.873847 0.268181 0.224531 Br
0.123981 0.268625 0.474621 Br
0.873742 0.768013 0.724456 Br
0.123886 0.767988 0.974385 Br
0.373700 0.768137 0.224532 Br
0.623848 0.767525 0.472079 Br
0.873990 0.267691 0.724309 Br
0.123969 0.267979 0.974581 Br
0.374093 0.268288 0.224774 Br
0.373998 0.767762 0.724682 Br
0.623855 0.767916 0.974841 Br
0.623907 0.267845 0.974614 Br
0.974572 0.232174 0.374019 Br
0.224728 0.232321 0.623794 Br
0.974907 0.734957 0.373991 Br
0.224172 0.731564 0.623822 Br
0.974515 0.232106 0.873858 Br
0.224638 0.231948 0.124006 Br
0.474276 0.231913 0.374158 Br
0.724606 0.231888 0.624128 Br
0.974521 0.732055 0.873880 Br
0.224376 0.732447 0.123828 Br
0.474464 0.231783 0.874050 Br
0.724478 0.231987 0.124130 Br
0.474684 0.731881 0.873365 Br
0.725258 0.732167 0.123654 Br
0.126246 0.018197 0.275605 Br
0.376518 0.016616 0.525759 Br
0.126013 0.517653 0.276087 Br
0.126194 0.018029 0.775462 Br
0.376190 0.018040 0.025465 Br
0.626140 0.017813 0.275293 Br
0.876061 0.017998 0.525494 Br
0.126076 0.517701 0.775144 Br
0.376147 0.517762 0.025532 Br
0.866719 0.515051 0.523381 Br
0.626054 0.018031 0.775390 Br
0.876112 0.017906 0.025483 Br
0.626108 0.516307 0.775949 Br
0.876101 0.518323 0.025843 Br
0.025536 0.982213 0.126129 Br
0.275498 0.982110 0.376210 Br
0.025599 0.482200 0.126210 Br
0.025570 0.982101 0.626002 Br
0.275590 0.982115 0.876044 Br
0.525389 0.981807 0.126344 Br
0.775592 0.982263 0.376185 Br
0.022879 0.481259 0.625462 Br
0.275568 0.481829 0.875756 Br
0.525094 0.482029 0.126860 Br
0.771692 0.479296 0.376678 Br
0.525555 0.981674 0.625692 Br
0.775442 0.981815 0.876063 Br
0.776011 0.482610 0.876107 Br
0.386475 0.374777 0.354254 Cs
0.635257 0.368307 0.615604 Cs
0.610792 0.633133 0.372662 Cs
0.349528 0.627546 0.641791 Cs
0.396540 0.372230 0.613843 Cs
0.646706 0.370927 0.363461 Cs
0.618101 0.624682 0.654207 Cs
0.358791 0.624835 0.389634 Cs
0.249895 0.249681 0.249854 Pb
0.500338 0.248247 0.499384 Pb
0.499895 0.250137 0.249634 Pb
0.249679 0.250623 0.499934 Pb
0.500012 0.500116 0.250097 Pb
0.247508 0.501937 0.500175 Pb
0.249571 0.499315 0.249621 Pb
0.493356 0.499649 0.502796 Pb
0.483975 0.623769 0.729068 Br
0.741501 0.627154 0.472664 Br
0.735083 0.374522 0.737547 Br
0.494272 0.375093 0.482790 Br
0.266109 0.624984 0.261798 Br
0.515753 0.375455 0.271268 Br
0.266314 0.376626 0.519471 Br
0.373836 0.481394 0.723815 Br
0.478218 0.521182 0.376401 Br
0.724721 0.517410 0.623820 Br
0.523548 0.264034 0.625792 Br
0.275642 0.268203 0.376210 Br
0.626199 0.740388 0.268315 Br
0.377846 0.725733 0.523806 Br
0.374127 0.267788 0.724728 Br
0.623800 0.263699 0.474240 Br
0.475143 0.728088 0.374254 Br
0.724946 0.731648 0.623465 Br
0.626051 0.514325 0.275964 Br
0.372867 0.528932 0.525129 Br
0.521698 0.475338 0.626608 Br
0.275417 0.482009 0.376487 Br
0.590049 0.574333 0.509353 Br
