Cs7 Pb8 Br24
1.0
8.420018 0.000000 8.077981
0.000000 11.763808 0.000000
-8.420018 0.000000 8.077981
Cs Pb Br Cs
6 8 24 1
direct
0.268661 0.250001 0.191587 Cs
0.771170 0.250001 0.720910 Cs
0.212804 0.750001 0.758842 Cs
0.296961 0.249998 0.752422 Cs
0.790025 0.249997 0.221612 Cs
0.256043 0.750002 0.249206 Cs
-0.007743 -0.005918 -0.007297 Pb
0.492737 0.007424 0.501107 Pb
0.508666 -0.006551 0.000716 Pb
0.008773 0.006669 0.499960 Pb
0.508672 0.506562 0.000715 Pb
0.008774 0.493330 0.499973 Pb
-0.007745 0.505918 -0.007311 Pb
0.492741 0.492575 0.501101 Pb
0.447906 0.750001 0.979818 Br
1.044436 0.749994 0.468709 Br
0.973682 0.250000 0.966684 Br
0.442726 0.250000 0.469403 Br
0.042937 0.750004 0.021361 Br
0.458665 0.750002 0.522075 Br
0.528567 0.250000 0.023490 Br
0.029943 0.250001 0.554374 Br
0.246322 0.475565 0.954774 Br
0.745444 0.447069 0.460112 Br
0.446459 0.511160 0.247689 Br
0.941872 0.543498 0.739710 Br
0.546687 0.040618 0.749790 Br
0.052520 0.036432 0.247469 Br
0.752594 0.971642 0.072543 Br
0.249268 0.998611 0.571296 Br
0.246325 0.024438 0.954772 Br
0.745447 0.052932 0.460108 Br
0.446458 0.988839 0.247689 Br
0.941871 0.956499 0.739708 Br
0.752597 0.528358 0.072544 Br
0.249270 0.501385 0.571293 Br
0.546688 0.459381 0.749791 Br
0.052519 0.463563 0.247465 Br
0.749335 0.749997 1.468876 Cs
