Cs64 Pb64 Br191
1.0
16.840035 0.000000 16.155961
0.000000 23.527616 0.000000
-16.840035 0.000000 16.155961
Cs Pb Br Cs Pb Br
56 56 168 8 8 23
direct
0.883343 0.870888 0.356732 Cs
0.135325 0.872200 0.603333 Cs
0.885638 0.375195 0.353058 Cs
0.136419 0.374990 0.604199 Cs
0.886094 0.876371 0.853514 Cs
0.136231 0.875201 0.103545 Cs
0.384610 0.874967 0.352828 Cs
0.639344 0.882530 0.622361 Cs
0.886847 0.374817 0.853971 Cs
0.136061 0.374873 0.103527 Cs
0.386513 0.875201 0.853287 Cs
0.636216 0.874933 0.103387 Cs
0.385992 0.374897 0.852908 Cs
0.636292 0.375189 0.104377 Cs
0.103359 0.124670 0.386268 Cs
0.353514 0.124624 0.635829 Cs
0.103808 0.625556 0.388973 Cs
0.103602 0.124952 0.886508 Cs
0.352481 0.124903 0.135705 Cs
0.604456 0.124787 0.386156 Cs
0.854264 0.124883 0.635586 Cs
0.103617 0.625063 0.885671 Cs
0.355241 0.624989 0.135850 Cs
0.860659 0.628704 0.638620 Cs
0.603792 0.124589 0.885571 Cs
0.856824 0.125182 0.136065 Cs
0.603469 0.624926 0.888871 Cs
0.852931 0.624828 0.138381 Cs
0.895668 0.874251 0.114608 Cs
0.145894 0.871828 0.367167 Cs
0.896618 0.374880 0.114050 Cs
0.146469 0.375112 0.364261 Cs
0.896030 0.873728 0.614497 Cs
0.146797 0.875171 0.863931 Cs
0.396440 0.874968 0.114052 Cs
0.647018 0.885061 0.353070 Cs
0.897162 0.375178 0.614655 Cs
0.146822 0.374855 0.864124 Cs
0.395361 0.373898 0.112578 Cs
0.395471 0.872524 0.614956 Cs
0.646444 0.875716 0.866416 Cs
0.646004 0.375000 0.864218 Cs
0.114002 0.124846 0.146368 Cs
0.363794 0.124540 0.396419 Cs
0.113963 0.625004 0.146737 Cs
0.113982 0.124727 0.646008 Cs
0.363994 0.124984 0.896762 Cs
0.613381 0.125123 0.144952 Cs
0.865994 0.124505 0.399651 Cs
0.114732 0.625479 0.646323 Cs
0.363779 0.625058 0.896789 Cs
0.614525 0.624721 0.142823 Cs
0.864576 0.625626 0.391402 Cs
0.613969 0.125020 0.645851 Cs
0.864711 0.125336 0.897816 Cs
0.864225 0.624813 0.896838 Cs
0.749977 0.750848 0.250161 Pb
0.992994 0.747585 0.500526 Pb
0.750884 0.247906 0.249730 Pb
0.000167 0.249989 0.500118 Pb
0.750779 0.750476 0.754220 Pb
0.000055 0.749948 0.000077 Pb
0.249355 0.750051 0.249576 Pb
0.513692 0.751920 0.500368 Pb
0.750237 0.250774 0.750340 Pb
0.000193 0.250064 0.000107 Pb
0.250229 0.750045 0.750550 Pb
0.499799 0.750299 1.000036 Pb
0.250041 0.249520 0.750175 Pb
0.499980 0.250075 -0.000052 Pb
0.000825 0.750063 0.249939 Pb
0.252852 0.749318 0.500217 Pb
0.000269 0.249770 0.250192 Pb
0.000301 0.750620 0.750787 Pb
0.249906 0.750179 0.999971 Pb
0.499603 0.750451 0.249664 Pb
0.724498 0.751327 0.501060 Pb
0.000152 0.249630 0.750144 Pb
0.249962 0.249914 -0.000071 Pb
0.749740 0.247216 0.499837 Pb
0.500232 0.750045 0.750519 Pb
0.750541 0.749713 0.000939 Pb
0.500017 0.250059 0.750269 Pb
0.750075 0.249940 0.000106 Pb
0.000597 0.999322 0.250597 Pb
0.250008 0.999498 0.500123 Pb
0.000913 0.499850 0.250103 Pb
0.000480 0.000246 0.750070 Pb
0.250014 -0.000184 0.000009 Pb
0.499562 0.000746 0.249488 Pb
0.750169 0.995383 0.500550 Pb
0.000431 0.499354 0.750508 Pb
0.249802 0.500208 -0.000038 Pb
0.748879 0.497863 0.500476 Pb
0.499672 0.000552 0.750210 Pb
0.750418 0.000653 0.000388 Pb
0.500181 0.500782 0.750255 Pb
0.750474 0.499654 -0.000186 Pb
0.752719 0.001265 0.249363 Pb
1.000045 0.998982 0.500171 Pb
0.750853 0.497591 0.247934 Pb
0.999628 0.499762 0.499959 Pb
0.752583 0.002721 0.751355 Pb
0.000112 -0.000393 0.000103 Pb
0.249689 -0.000215 0.250156 Pb
0.499644 0.996438 0.499290 Pb
0.750380 0.499745 0.750498 Pb
0.000175 0.500233 0.000124 Pb
0.249999 -0.000098 0.750014 Pb
0.499858 0.000141 0.000131 Pb
0.250070 0.499760 0.750345 Pb
0.499521 0.499420 0.999690 Pb
0.985572 0.124582 0.231965 Br
0.234636 0.124686 0.481036 Br
0.983807 0.624610 0.231581 Br
0.235730 0.624146 0.481050 Br
0.984472 0.125051 0.730144 Br
0.234456 0.124919 0.981027 Br
0.483059 0.124756 0.229610 Br
0.735962 0.125828 0.483849 Br
0.987573 0.624881 0.733766 Br
0.234299 0.625166 0.980499 Br
0.488652 0.623799 0.231151 Br
0.484644 0.125551 0.730208 Br
0.733903 0.125315 0.980337 Br
0.734283 0.624794 0.981437 Br
0.229333 0.874680 0.235763 Br
0.473657 0.869092 0.485240 Br
0.230325 0.374770 0.234747 Br
0.231165 0.874651 0.733834 Br
0.480940 0.874998 0.984169 Br
0.736455 0.875470 0.229900 Br
0.980937 0.873580 0.484990 Br
0.231494 0.374696 0.734399 Br
0.480060 0.374881 0.983204 Br
0.735108 0.373102 0.233019 Br
0.979134 0.374704 0.484065 Br
0.739279 0.876312 0.743856 Br
0.979814 0.874838 0.984867 Br
0.980831 0.375099 0.984756 Br
0.774727 0.124380 0.267447 Br
0.017396 0.124475 0.515731 Br
0.759886 0.623951 0.267423 Br
0.018018 0.623760 0.517842 Br
0.771835 0.126759 0.766464 Br
0.018694 0.124912 0.016030 Br
0.269478 0.124736 0.266022 Br
0.516426 0.124169 0.514441 Br
0.769548 0.625197 0.764383 Br
0.020199 0.625018 0.015761 Br
0.270262 0.124665 0.765828 Br
0.519067 0.125101 0.014902 Br
0.268680 0.624722 0.766698 Br
0.517257 0.624750 0.016268 Br
0.014375 0.874337 0.272818 Br
0.265961 0.874135 0.519544 Br
0.015961 0.374824 0.270263 Br
0.016035 0.875257 0.769811 Br
0.266005 0.874994 0.019868 Br
0.513251 0.874960 0.268455 Br
0.766936 0.871569 0.520868 Br
0.016187 0.374670 0.769613 Br
0.265145 0.375067 0.018825 Br
0.765719 0.381291 0.518033 Br
0.517456 0.875518 0.767732 Br
0.765407 0.875178 0.018618 Br
0.516041 0.375868 0.767439 Br
0.765800 0.375012 0.019948 Br
0.874591 0.981959 0.224492 Br
0.123835 0.981952 0.474767 Br
0.875160 0.482416 0.224676 Br
0.124298 0.482530 0.475864 Br
0.874710 0.982750 0.723649 Br
0.123924 0.981948 0.974558 Br
0.374019 0.982017 0.224488 Br
0.623545 0.986650 0.472844 Br
0.873835 0.482466 0.724588 Br
0.123833 0.482050 0.974454 Br
0.373159 0.480682 0.223412 Br
0.374306 0.981744 0.724449 Br
0.623936 0.982695 0.975454 Br
0.623863 0.482044 0.975434 Br
0.974453 0.017371 0.374196 Br
0.224733 0.017816 0.623961 Br
0.974546 0.518199 0.374274 Br
0.224815 0.517869 0.623820 Br
0.974574 0.018002 0.873960 Br
0.224530 0.017790 0.123999 Br
0.474552 0.017221 0.373997 Br
0.725410 0.018090 0.624253 Br
0.974490 0.517678 0.874062 Br
0.224496 0.517869 0.123995 Br
0.474752 0.017910 0.873732 Br
0.726245 0.020036 0.124589 Br
0.474571 0.518190 0.873271 Br
0.725319 0.517847 0.123528 Br
0.025778 0.768207 0.126621 Br
0.275619 0.767524 0.376085 Br
0.025456 0.267845 0.126254 Br
0.021447 0.766675 0.626238 Br
0.275877 0.768250 0.876299 Br
0.525061 0.767930 0.126242 Br
0.765383 0.765058 0.376995 Br
0.025556 0.268147 0.626048 Br
0.275663 0.267843 0.876098 Br
0.525408 0.268268 0.126348 Br
0.775546 0.267444 0.376518 Br
0.530345 0.768238 0.626716 Br
0.778726 0.767136 0.877180 Br
0.775446 0.268425 0.876076 Br
0.126292 0.231981 0.275807 Br
0.376577 0.232733 0.525609 Br
0.126376 0.730642 0.276673 Br
0.126173 0.231849 0.775533 Br
0.376181 0.232029 0.025522 Br
0.626331 0.231203 0.274913 Br
0.875561 0.233818 0.526556 Br
0.126655 0.732552 0.774987 Br
0.376109 0.732286 0.025571 Br
0.870007 0.728831 0.517522 Br
0.626243 0.231931 0.775301 Br
0.876062 0.232253 0.025428 Br
0.626692 0.734440 0.780550 Br
0.876193 0.730931 0.026947 Br
0.874436 0.765711 0.226594 Br
0.126762 0.763682 0.479377 Br
0.874210 0.267796 0.224565 Br
0.123929 0.268051 0.474757 Br
0.874136 0.766909 0.726223 Br
0.123832 0.768147 0.974487 Br
0.373614 0.767571 0.225463 Br
0.621499 0.816441 0.483383 Br
0.873883 0.268343 0.724512 Br
0.123917 0.267861 0.974568 Br
0.374086 0.267987 0.224696 Br
0.375046 0.767610 0.725516 Br
0.624013 0.767435 0.975325 Br
0.623911 0.268044 0.974824 Br
0.974532 0.232195 0.374146 Br
0.224638 0.231957 0.623876 Br
0.974817 0.731016 0.374015 Br
0.227174 0.731593 0.624275 Br
0.974691 0.232125 0.873892 Br
0.224544 0.232096 0.124023 Br
0.474536 0.232067 0.374450 Br
0.724338 0.232636 0.623708 Br
0.974513 0.732107 0.874640 Br
0.224543 0.732092 0.123955 Br
0.474716 0.232150 0.873789 Br
0.724879 0.231430 0.124122 Br
0.474525 0.731985 0.873685 Br
0.724876 0.731789 0.123637 Br
0.126289 0.017723 0.275848 Br
0.376442 0.017391 0.524885 Br
0.126622 0.518975 0.277012 Br
0.126455 0.018153 0.775691 Br
0.376155 0.017888 0.025587 Br
0.626505 0.021165 0.272365 Br
0.875444 0.015438 0.526430 Br
0.126291 0.517458 0.775391 Br
0.376019 0.517817 0.025289 Br
0.873422 0.522920 0.522954 Br
0.626828 0.017009 0.773342 Br
0.876131 0.017838 0.025728 Br
0.626371 0.518046 0.778163 Br
0.876024 0.518451 0.026063 Br
0.025330 0.981764 0.126308 Br
0.275379 0.981964 0.376220 Br
0.025811 0.482087 0.126432 Br
0.025961 0.981412 0.626235 Br
0.275721 0.981887 0.876167 Br
0.525494 0.981909 0.126070 Br
0.776244 0.982066 0.376613 Br
0.024734 0.481860 0.626032 Br
0.275703 0.481990 0.876057 Br
0.522615 0.479861 0.125881 Br
0.773781 0.484682 0.376291 Br
0.523493 0.983824 0.625322 Br
0.776590 0.985040 0.876790 Br
0.775959 0.481892 0.875605 Br
0.384721 0.374719 0.354197 Cs
0.635602 0.374528 0.603978 Cs
0.603340 0.617653 0.361907 Cs
0.350508 0.625333 0.636020 Cs
0.396284 0.375210 0.615018 Cs
0.647486 0.370618 0.360293 Cs
0.620965 0.628181 0.657210 Cs
0.361758 0.627731 0.392780 Cs
0.249853 0.249547 0.249986 Pb
0.500057 0.246690 0.500310 Pb
0.499586 0.249272 0.249643 Pb
0.249754 0.249690 0.500055 Pb
0.497144 0.497125 0.248625 Pb
0.250880 0.499921 0.500215 Pb
0.249151 0.499831 0.249800 Pb
0.502501 0.497894 0.499429 Pb
0.483927 0.625770 0.728227 Br
0.729946 0.375769 0.733672 Br
0.482203 0.380877 0.486102 Br
0.269472 0.624704 0.263640 Br
0.513767 0.373724 0.271890 Br
0.266644 0.374753 0.519715 Br
0.374407 0.482446 0.724472 Br
0.624312 0.475747 0.471080 Br
0.475206 0.520911 0.374566 Br
0.725998 0.519889 0.622938 Br
0.525414 0.267463 0.625545 Br
0.275379 0.267742 0.376286 Br
0.625589 0.738544 0.270962 Br
0.385243 0.726639 0.521758 Br
0.374113 0.267803 0.724553 Br
0.623715 0.267230 0.474502 Br
0.484254 0.726734 0.376236 Br
0.725362 0.739369 0.625930 Br
0.625846 0.505081 0.265953 Br
0.379476 0.520180 0.523729 Br
0.528651 0.485818 0.624890 Br
0.275541 0.482361 0.376256 Br
0.628564 0.659493 0.504864 Br
