Cs64 Pb64 Br191
1.0
16.840035 0.000000 16.155961
0.000000 23.527616 0.000000
-16.840035 0.000000 16.155961
Cs Pb Br Cs Pb Br
56 56 168 8 8 23
direct
0.887800 0.877431 0.353620 Cs
0.136374 0.875166 0.603966 Cs
0.889259 0.373051 0.353626 Cs
0.135871 0.376314 0.602817 Cs
0.887873 0.877098 0.854533 Cs
0.135928 0.875272 0.103679 Cs
0.385977 0.874919 0.354358 Cs
0.635963 0.874679 0.602900 Cs
0.889372 0.373978 0.854190 Cs
0.136032 0.374989 0.103714 Cs
0.385443 0.875498 0.854049 Cs
0.636062 0.875033 0.103614 Cs
0.385715 0.374916 0.858041 Cs
0.634225 0.374718 0.102392 Cs
0.103454 0.124939 0.386358 Cs
0.354043 0.125482 0.636328 Cs
0.103035 0.625430 0.388735 Cs
0.103683 0.125199 0.886715 Cs
0.352350 0.125081 0.135785 Cs
0.606043 0.124459 0.386819 Cs
0.853327 0.125908 0.635301 Cs
0.103695 0.625264 0.885886 Cs
0.354086 0.625147 0.136195 Cs
0.867267 0.629671 0.632405 Cs
0.602874 0.125013 0.886179 Cs
0.856924 0.124344 0.135679 Cs
0.599302 0.625786 0.889647 Cs
0.857071 0.626445 0.138249 Cs
0.896174 0.875006 0.114014 Cs
0.146630 0.874942 0.364218 Cs
0.893922 0.375837 0.114257 Cs
0.146518 0.378587 0.368141 Cs
0.893520 0.875495 0.613204 Cs
0.147194 0.875344 0.864443 Cs
0.395443 0.875064 0.114062 Cs
0.649191 0.876247 0.363747 Cs
0.898207 0.375059 0.612008 Cs
0.147040 0.374838 0.864077 Cs
0.396452 0.375378 0.115360 Cs
0.396933 0.874662 0.615219 Cs
0.646474 0.877817 0.865075 Cs
0.647140 0.374548 0.867736 Cs
0.114374 0.125085 0.146335 Cs
0.363858 0.124937 0.396090 Cs
0.114353 0.625309 0.148731 Cs
0.114090 0.125400 0.646676 Cs
0.363601 0.124680 0.896917 Cs
0.611506 0.122496 0.143848 Cs
0.864860 0.125237 0.399576 Cs
0.114578 0.624717 0.645285 Cs
0.362867 0.624682 0.896736 Cs
0.613666 0.625692 0.147329 Cs
0.871379 0.625513 0.389833 Cs
0.613511 0.124737 0.646901 Cs
0.864529 0.125188 0.896290 Cs
0.863995 0.628053 0.892881 Cs
0.750368 0.750565 0.249844 Pb
0.000881 0.752091 0.500059 Pb
0.752984 0.246934 0.246994 Pb
0.000403 0.250170 0.500148 Pb
0.750781 0.752988 0.750366 Pb
0.000288 0.750144 0.000249 Pb
0.249751 0.750622 0.249797 Pb
0.503286 0.748008 0.500778 Pb
0.750072 0.250734 0.750080 Pb
0.000169 0.250434 0.000259 Pb
0.250026 0.750483 0.750213 Pb
0.499768 0.750802 0.000850 Pb
0.249953 0.250338 0.750153 Pb
0.499581 0.249946 0.000712 Pb
0.000825 0.751034 0.249946 Pb
0.252482 0.750493 0.500547 Pb
0.001658 0.249912 0.250204 Pb
0.000974 0.752070 0.750637 Pb
0.249911 0.750297 0.000108 Pb
0.499950 0.750286 0.250544 Pb
0.750032 0.748863 0.496858 Pb
0.000130 0.250261 0.749955 Pb
0.249943 0.250400 0.000232 Pb
0.750085 0.252770 0.499937 Pb
0.499761 0.750670 0.753095 Pb
0.750116 0.750480 0.999973 Pb
0.499598 0.250084 0.752696 Pb
0.750330 0.249718 0.999824 Pb
0.000265 0.000401 0.250088 Pb
0.250000 0.000291 0.500103 Pb
0.002419 0.499445 0.249893 Pb
0.000110 0.000829 0.749919 Pb
0.249956 0.000312 0.000089 Pb
0.499938 0.999383 0.250213 Pb
0.750081 0.000391 0.500111 Pb
0.000149 0.499991 0.750425 Pb
0.249645 0.500231 0.000254 Pb
0.740268 0.499347 0.490041 Pb
0.499793 0.000434 0.750245 Pb
0.750231 0.000641 0.000145 Pb
0.499659 0.497604 0.753294 Pb
0.749973 0.502395 0.002715 Pb
0.750363 0.000290 0.249839 Pb
0.000266 0.000528 0.500356 Pb
0.750309 0.499197 0.248754 Pb
0.997327 0.500589 0.500592 Pb
0.750221 0.001017 0.750118 Pb
0.000267 0.000293 0.000176 Pb
0.249986 0.000393 0.250131 Pb
0.500195 0.000911 0.500359 Pb
0.750654 0.498392 0.755491 Pb
0.000188 0.500744 0.000011 Pb
0.249984 0.000594 0.750049 Pb
0.499551 0.999826 0.000087 Pb
0.249970 0.499933 0.750546 Pb
0.499679 0.500681 0.003319 Pb
0.985787 0.125452 0.231395 Br
0.234447 0.125396 0.480625 Br
0.984668 0.625285 0.235714 Br
0.233867 0.626423 0.480764 Br
0.983350 0.125940 0.730152 Br
0.234199 0.125496 0.981469 Br
0.482157 0.123740 0.230082 Br
0.735766 0.127546 0.484279 Br
0.987645 0.626052 0.734277 Br
0.233960 0.625293 0.981251 Br
0.484744 0.624641 0.231474 Br
0.484029 0.125004 0.732669 Br
0.734558 0.125983 0.978509 Br
0.734225 0.625717 0.976619 Br
0.230411 0.875496 0.234379 Br
0.483726 0.865711 0.486985 Br
0.228437 0.375292 0.235859 Br
0.231268 0.875451 0.734495 Br
0.480082 0.875095 0.984494 Br
0.731780 0.874866 0.233045 Br
0.980391 0.876183 0.485209 Br
0.230199 0.375561 0.733330 Br
0.483034 0.375635 0.986828 Br
0.737427 0.373886 0.226061 Br
0.984327 0.375697 0.483906 Br
0.730145 0.876023 0.733619 Br
0.981170 0.875398 0.985276 Br
0.980034 0.375830 0.985873 Br
0.775420 0.124276 0.266515 Br
0.018409 0.125709 0.516476 Br
0.768058 0.623701 0.265871 Br
0.013275 0.626144 0.517487 Br
0.769977 0.126517 0.765392 Br
0.018643 0.125663 0.016342 Br
0.269124 0.125426 0.265924 Br
0.518556 0.121225 0.514862 Br
0.769185 0.624519 0.756510 Br
0.020848 0.625456 0.016739 Br
0.269698 0.125619 0.765823 Br
0.516981 0.124908 0.014794 Br
0.267483 0.625267 0.767139 Br
0.517556 0.625789 0.019249 Br
0.016989 0.875685 0.269016 Br
0.267351 0.875606 0.520596 Br
0.018000 0.375139 0.269787 Br
0.017090 0.876288 0.770266 Br
0.265331 0.875366 0.019175 Br
0.516316 0.874385 0.272549 Br
0.763654 0.875135 0.516484 Br
0.017056 0.375746 0.769496 Br
0.266182 0.375504 0.019745 Br
0.762021 0.379877 0.527817 Br
0.514991 0.874948 0.769865 Br
0.765371 0.875618 0.018881 Br
0.516488 0.374119 0.777409 Br
0.763895 0.376783 0.017700 Br
0.874078 0.981845 0.224466 Br
0.123966 0.982036 0.474787 Br
0.874542 0.483000 0.227223 Br
0.123811 0.487656 0.480188 Br
0.873831 0.982197 0.724651 Br
0.123834 0.982334 0.974619 Br
0.374090 0.981569 0.225062 Br
0.623789 0.982443 0.474571 Br
0.871101 0.483240 0.721162 Br
0.123609 0.481995 0.974345 Br
0.374092 0.482110 0.227691 Br
0.374015 0.982331 0.724614 Br
0.623826 0.983473 0.976181 Br
0.624615 0.484446 0.977152 Br
0.974668 0.018188 0.374153 Br
0.224539 0.018268 0.623964 Br
0.977431 0.514823 0.374382 Br
0.227870 0.518589 0.624574 Br
0.974702 0.018284 0.873937 Br
0.224564 0.017897 0.124050 Br
0.474532 0.017573 0.374416 Br
0.724445 0.017691 0.624028 Br
0.972943 0.518152 0.874075 Br
0.224396 0.517803 0.124069 Br
0.474508 0.017658 0.873998 Br
0.725126 0.018530 0.123961 Br
0.474313 0.517767 0.877247 Br
0.727192 0.520586 0.123953 Br
0.025732 0.767804 0.126180 Br
0.275728 0.768070 0.376346 Br
0.025512 0.268058 0.126238 Br
0.024522 0.768188 0.626468 Br
0.275447 0.768052 0.876220 Br
0.524725 0.768638 0.127275 Br
0.777102 0.771319 0.374243 Br
0.025898 0.268339 0.626207 Br
0.275027 0.267988 0.876282 Br
0.525149 0.267575 0.126614 Br
0.777159 0.267042 0.375744 Br
0.528073 0.764410 0.627727 Br
0.778511 0.768456 0.875119 Br
0.775714 0.270180 0.876103 Br
0.126488 0.231757 0.276120 Br
0.376002 0.232092 0.524864 Br
0.126313 0.732117 0.276374 Br
0.125661 0.231973 0.775600 Br
0.375928 0.232648 0.025908 Br
0.626926 0.225129 0.269973 Br
0.875839 0.235447 0.526180 Br
0.126204 0.732787 0.775402 Br
0.376097 0.732398 0.025868 Br
0.876627 0.736004 0.521758 Br
0.626302 0.232089 0.775626 Br
0.875985 0.232443 0.025499 Br
0.626789 0.738245 0.785091 Br
0.876000 0.731875 0.025454 Br
0.874288 0.767865 0.224882 Br
0.126440 0.768125 0.476149 Br
0.875220 0.266968 0.223028 Br
0.123839 0.267576 0.474534 Br
0.873790 0.768801 0.725478 Br
0.123889 0.768149 0.974575 Br
0.374167 0.768106 0.225361 Br
0.624686 0.768026 0.471426 Br
0.873551 0.270915 0.724782 Br
0.123760 0.268217 0.974633 Br
0.374166 0.267803 0.224906 Br
0.374702 0.767708 0.725217 Br
0.623878 0.768363 0.974781 Br
0.623915 0.266534 0.976069 Br
0.974494 0.232215 0.374098 Br
0.225229 0.232560 0.623982 Br
0.977641 0.735645 0.374259 Br
0.225231 0.732013 0.624174 Br
0.974622 0.232403 0.873940 Br
0.224436 0.232449 0.124058 Br
0.474754 0.231940 0.374160 Br
0.724060 0.232273 0.623951 Br
0.975450 0.733155 0.874064 Br
0.224466 0.732410 0.124065 Br
0.473577 0.231321 0.875447 Br
0.725282 0.227800 0.123391 Br
0.472188 0.732459 0.875524 Br
0.725515 0.731415 0.122999 Br
0.126215 0.018040 0.275747 Br
0.376379 0.017685 0.525746 Br
0.126478 0.519302 0.277228 Br
0.126072 0.018528 0.775563 Br
0.375935 0.017841 0.025747 Br
0.626371 0.018319 0.275167 Br
0.875976 0.017571 0.526082 Br
0.124705 0.517742 0.774869 Br
0.375945 0.517718 0.026116 Br
0.869258 0.515087 0.522279 Br
0.626247 0.018249 0.775632 Br
0.876068 0.017797 0.025205 Br
0.626997 0.517666 0.781239 Br
0.875844 0.520243 0.025492 Br
0.025376 0.982390 0.126197 Br
0.275576 0.981976 0.376294 Br
0.025564 0.482420 0.126118 Br
0.025455 0.982050 0.626231 Br
0.275368 0.982425 0.876151 Br
0.524940 0.981276 0.126387 Br
0.775930 0.983593 0.376252 Br
0.023835 0.483022 0.626708 Br
0.274849 0.482028 0.876488 Br
0.524828 0.482402 0.129491 Br
0.772913 0.475363 0.378227 Br
0.525621 0.981964 0.626135 Br
0.775535 0.982347 0.876057 Br
0.778112 0.482641 0.872203 Br
0.386595 0.375347 0.357357 Cs
0.628908 0.364165 0.602215 Cs
0.606342 0.625045 0.381776 Cs
0.353384 0.624340 0.639206 Cs
0.390477 0.375239 0.614092 Cs
0.648242 0.359760 0.349094 Cs
0.621272 0.633541 0.671621 Cs
0.360449 0.624769 0.392588 Cs
0.249993 0.250405 0.250233 Pb
0.499144 0.250792 0.499447 Pb
0.499453 0.248077 0.249666 Pb
0.249880 0.250086 0.499767 Pb
0.499874 0.500323 0.253845 Pb
0.254385 0.502796 0.500603 Pb
0.249956 0.499580 0.249909 Pb
0.514065 0.499614 0.503596 Pb
0.484024 0.623973 0.736352 Br
0.742128 0.625424 0.465476 Br
0.724926 0.376857 0.732467 Br
0.480855 0.373072 0.489074 Br
0.267179 0.625337 0.263439 Br
0.512992 0.373817 0.268769 Br
0.264063 0.376265 0.515954 Br
0.374172 0.481567 0.728146 Br
0.622815 0.457321 0.456228 Br
0.479122 0.524942 0.379003 Br
0.520399 0.262592 0.627031 Br
0.275656 0.268000 0.376181 Br
0.626460 0.733712 0.273986 Br
0.379591 0.728245 0.525699 Br
0.373888 0.268896 0.727058 Br
0.623793 0.266271 0.472794 Br
0.475825 0.728155 0.376218 Br
0.728766 0.732036 0.622575 Br
0.626868 0.515727 0.272575 Br
0.380688 0.523817 0.523078 Br
0.521540 0.470996 0.630452 Br
0.275677 0.483153 0.376219 Br
0.593070 0.590537 0.532545 Br
