Cs64 Pb64 Br191
1.0
16.840035 0.000000 16.155961
0.000000 23.527616 0.000000
-16.840035 0.000000 16.155961
Cs Pb Br Cs Pb Br
56 56 168 8 8 23
direct
0.887309 0.876678 0.353660 Cs
0.136636 0.875169 0.603849 Cs
0.889396 0.372657 0.353378 Cs
0.136120 0.375915 0.602995 Cs
0.887630 0.876850 0.854413 Cs
0.135962 0.875265 0.103585 Cs
0.386703 0.874756 0.355621 Cs
0.635784 0.874732 0.602665 Cs
0.889472 0.373680 0.854146 Cs
0.136037 0.374969 0.103672 Cs
0.385518 0.875488 0.854065 Cs
0.636032 0.875034 0.103590 Cs
0.385844 0.374860 0.857654 Cs
0.634653 0.374518 0.102686 Cs
0.103633 0.124920 0.386254 Cs
0.354058 0.125274 0.636136 Cs
0.103192 0.625529 0.388394 Cs
0.103757 0.125121 0.886628 Cs
0.352662 0.125049 0.135870 Cs
0.605125 0.124353 0.386649 Cs
0.853292 0.125578 0.635490 Cs
0.103718 0.625258 0.885874 Cs
0.353978 0.625174 0.136133 Cs
0.867582 0.630844 0.632940 Cs
0.603023 0.124996 0.886112 Cs
0.856413 0.124535 0.135804 Cs
0.599596 0.625774 0.889622 Cs
0.856973 0.626294 0.137899 Cs
0.896202 0.875039 0.114019 Cs
0.146622 0.874978 0.364143 Cs
0.894883 0.375490 0.114229 Cs
0.146627 0.378072 0.367544 Cs
0.894605 0.875561 0.613262 Cs
0.147226 0.875345 0.864437 Cs
0.395624 0.875056 0.114133 Cs
0.648311 0.876092 0.363626 Cs
0.899275 0.374762 0.613058 Cs
0.146938 0.374806 0.864036 Cs
0.396416 0.375329 0.115210 Cs
0.397583 0.874479 0.614818 Cs
0.646537 0.877282 0.864901 Cs
0.646688 0.374466 0.866810 Cs
0.114363 0.125049 0.146385 Cs
0.363980 0.124742 0.396181 Cs
0.114285 0.625280 0.148180 Cs
0.114178 0.125264 0.646621 Cs
0.363672 0.124730 0.896783 Cs
0.612204 0.123263 0.144691 Cs
0.864737 0.125116 0.398844 Cs
0.114719 0.624794 0.645452 Cs
0.362996 0.624715 0.896724 Cs
0.613683 0.625705 0.147254 Cs
0.869901 0.626655 0.391322 Cs
0.613096 0.124474 0.646589 Cs
0.864463 0.125159 0.896355 Cs
0.863947 0.627842 0.892917 Cs
0.750324 0.750558 0.249807 Pb
0.001714 0.752069 0.500004 Pb
0.752010 0.247642 0.248106 Pb
0.000420 0.250027 0.500137 Pb
0.750644 0.752717 0.750331 Pb
0.000268 0.750217 0.000211 Pb
0.249780 0.750636 0.249787 Pb
0.504024 0.745702 0.501662 Pb
0.750005 0.250626 0.750043 Pb
0.000211 0.250304 0.000264 Pb
0.250070 0.750493 0.750175 Pb
0.499791 0.750804 0.000936 Pb
0.249997 0.250267 0.750120 Pb
0.499729 0.249910 0.000611 Pb
0.000788 0.750978 0.249933 Pb
0.252861 0.750292 0.500479 Pb
0.001230 0.249918 0.250159 Pb
0.001044 0.752030 0.750696 Pb
0.249945 0.750319 0.000088 Pb
0.499826 0.750174 0.250736 Pb
0.750069 0.749230 0.497855 Pb
0.000178 0.249981 0.749965 Pb
0.249988 0.250341 0.000215 Pb
0.750216 0.251715 0.500078 Pb
0.499791 0.750677 0.753085 Pb
0.750119 0.750419 0.999972 Pb
0.499533 0.249916 0.752301 Pb
0.750266 0.249783 0.999921 Pb
0.000244 0.000363 0.250081 Pb
0.250128 0.000085 0.500111 Pb
0.001845 0.499610 0.250049 Pb
0.000121 0.000754 0.749941 Pb
0.249982 0.000318 0.000095 Pb
0.499899 0.999424 0.250137 Pb
0.750113 0.000240 0.500095 Pb
0.000311 0.499962 0.750426 Pb
0.249677 0.500209 0.000201 Pb
0.745075 0.498240 0.490976 Pb
0.499784 0.000345 0.750235 Pb
0.750168 0.000581 0.000121 Pb
0.499715 0.498204 0.753278 Pb
0.749966 0.501859 0.002330 Pb
0.750314 0.000288 0.249884 Pb
0.000309 0.000512 0.500264 Pb
0.750326 0.499289 0.248158 Pb
0.998741 0.500461 0.500370 Pb
0.750154 0.000920 0.750096 Pb
0.000244 0.000282 0.000173 Pb
0.250049 0.000295 0.250136 Pb
0.500123 -0.000646 0.500185 Pb
0.750704 0.498329 0.755493 Pb
0.000212 0.500664 0.000051 Pb
0.250036 0.000520 0.750034 Pb
0.499673 0.999962 0.000113 Pb
0.250047 0.499908 0.750502 Pb
0.499744 0.500565 0.003269 Pb
0.985514 0.125456 0.231222 Br
0.234579 0.125292 0.480692 Br
0.984701 0.625271 0.235053 Br
0.234144 0.626109 0.480634 Br
0.983488 0.125808 0.730019 Br
0.234277 0.125474 0.981302 Br
0.482662 0.123958 0.230257 Br
0.735566 0.126916 0.483362 Br
0.987993 0.625981 0.734436 Br
0.234029 0.625256 0.981187 Br
0.484777 0.624578 0.231234 Br
0.483885 0.124961 0.732548 Br
0.734527 0.125910 0.978849 Br
0.734392 0.625396 0.977129 Br
0.230246 0.875444 0.234239 Br
0.484682 0.866172 0.487310 Br
0.228577 0.375285 0.235627 Br
0.231164 0.875391 0.734523 Br
0.480240 0.875152 0.984549 Br
0.731669 0.874829 0.233259 Br
0.980856 0.876094 0.484839 Br
0.230276 0.375516 0.733496 Br
0.482791 0.375578 0.986629 Br
0.735794 0.374154 0.227995 Br
0.983838 0.375700 0.483882 Br
0.730044 0.875858 0.733622 Br
0.981091 0.875374 0.985147 Br
0.980368 0.375715 0.985641 Br
0.774185 0.124503 0.266427 Br
0.018837 0.125689 0.516328 Br
0.768204 0.623736 0.265964 Br
0.013874 0.626046 0.517433 Br
0.769842 0.126453 0.765603 Br
0.018875 0.125588 0.016246 Br
0.269184 0.125395 0.265920 Br
0.518144 0.121137 0.514681 Br
0.769150 0.624326 0.756096 Br
0.020552 0.625410 0.016504 Br
0.269760 0.125559 0.765698 Br
0.517799 0.125002 0.015130 Br
0.267547 0.625216 0.767082 Br
0.517702 0.625681 0.019113 Br
0.016730 0.875634 0.269115 Br
0.267536 0.875393 0.520439 Br
0.018014 0.375193 0.269606 Br
0.017022 0.876214 0.770315 Br
0.265435 0.875345 0.019141 Br
0.516002 0.874398 0.272006 Br
0.764292 0.874906 0.517278 Br
0.016883 0.375625 0.769004 Br
0.266173 0.375479 0.019686 Br
0.763672 0.378346 0.528044 Br
0.515217 0.874975 0.770007 Br
0.765406 0.875451 0.018853 Br
0.516134 0.374304 0.775626 Br
0.764490 0.376577 0.018236 Br
0.874046 0.981901 0.224501 Br
0.123971 0.982026 0.474739 Br
0.874340 0.482635 0.226490 Br
0.124386 0.486773 0.479282 Br
0.873849 0.982148 0.724625 Br
0.123858 0.982314 0.974606 Br
0.374065 0.981657 0.224984 Br
0.623900 0.982399 0.474519 Br
0.871493 0.483442 0.721500 Br
0.123672 0.482018 0.974330 Br
0.374092 0.482104 0.227568 Br
0.374027 0.982167 0.724517 Br
0.623884 0.983149 0.975750 Br
0.624671 0.483796 0.976838 Br
0.974652 0.018148 0.374110 Br
0.224562 0.018176 0.623944 Br
0.976450 0.515782 0.374376 Br
0.227673 0.518534 0.624416 Br
0.974686 0.018274 0.873903 Br
0.224596 0.017916 0.124022 Br
0.474515 0.017286 0.374308 Br
0.724457 0.017787 0.623987 Br
0.973105 0.517954 0.873957 Br
0.224442 0.517792 0.124044 Br
0.474525 0.017740 0.873980 Br
0.724996 0.018405 0.123939 Br
0.474417 0.517730 0.877045 Br
0.726687 0.520062 0.123762 Br
0.025718 0.767828 0.126118 Br
0.275822 0.768031 0.376301 Br
0.025485 0.268032 0.126215 Br
0.024823 0.768121 0.626453 Br
0.275482 0.768037 0.876194 Br
0.524779 0.768547 0.127283 Br
0.776562 0.770124 0.374650 Br
0.025989 0.268203 0.626179 Br
0.275120 0.267981 0.876223 Br
0.525264 0.267645 0.126530 Br
0.776569 0.267781 0.375997 Br
0.528352 0.764437 0.628271 Br
0.778390 0.768219 0.875207 Br
0.775502 0.270439 0.876000 Br
0.126360 0.231830 0.275975 Br
0.375993 0.232083 0.524924 Br
0.126269 0.732085 0.276191 Br
0.125729 0.231954 0.775602 Br
0.376024 0.232524 0.025792 Br
0.626700 0.226938 0.271421 Br
0.875964 0.234532 0.526193 Br
0.126225 0.732781 0.775458 Br
0.376100 0.732372 0.025820 Br
0.877063 0.735998 0.521489 Br
0.626256 0.232107 0.775509 Br
0.876021 0.232380 0.025421 Br
0.626786 0.736845 0.783735 Br
0.876013 0.731881 0.025400 Br
0.874255 0.767838 0.224859 Br
0.126701 0.768027 0.475865 Br
0.874764 0.267328 0.223639 Br
0.123860 0.267690 0.474536 Br
0.873857 0.768721 0.725192 Br
0.123883 0.768108 0.974525 Br
0.374127 0.768051 0.225415 Br
0.625232 0.768304 0.471883 Br
0.873585 0.270261 0.724797 Br
0.123808 0.268169 0.974606 Br
0.374107 0.267868 0.224852 Br
0.374656 0.767768 0.725104 Br
0.623911 0.768251 0.974703 Br
0.623973 0.266996 0.975597 Br
0.974539 0.232125 0.374096 Br
0.225056 0.232457 0.623948 Br
0.977604 0.735357 0.374238 Br
0.225304 0.731990 0.624116 Br
0.974650 0.232323 0.873902 Br
0.224473 0.232391 0.124025 Br
0.474601 0.231940 0.374055 Br
0.723919 0.231733 0.623933 Br
0.975248 0.733027 0.873995 Br
0.224498 0.732379 0.124031 Br
0.473800 0.231510 0.875194 Br
0.725316 0.228905 0.123592 Br
0.472309 0.732437 0.875655 Br
0.725488 0.731409 0.123056 Br
0.126194 0.018031 0.275687 Br
0.376356 0.017324 0.525722 Br
0.126284 0.519186 0.277071 Br
0.126088 0.018451 0.775528 Br
0.376008 0.017900 0.025683 Br
0.626345 0.018222 0.275210 Br
0.876011 0.017655 0.525923 Br
0.125089 0.517680 0.775035 Br
0.376036 0.517698 0.026072 Br
0.871400 0.515829 0.524035 Br
0.626251 0.018203 0.775587 Br
0.876073 0.017845 0.025250 Br
0.627150 0.518021 0.780949 Br
0.875841 0.519634 0.025413 Br
0.025391 0.982334 0.126165 Br
0.275656 0.981885 0.376271 Br
0.025525 0.482436 0.126155 Br
0.025528 0.981991 0.626202 Br
0.275396 0.982413 0.876129 Br
0.525141 0.981488 0.126304 Br
0.775790 0.983073 0.376232 Br
0.024491 0.482915 0.626553 Br
0.275022 0.482001 0.876391 Br
0.525103 0.482241 0.129252 Br
0.774007 0.475769 0.377954 Br
0.525648 0.981964 0.626170 Br
0.775527 0.982309 0.876030 Br
0.778204 0.482403 0.872208 Br
0.386644 0.375193 0.357341 Cs
0.629043 0.364130 0.601363 Cs
0.606893 0.625179 0.381537 Cs
0.353549 0.624648 0.639190 Cs
0.392026 0.375225 0.614148 Cs
0.647062 0.363402 0.352793 Cs
0.619649 0.632239 0.667806 Cs
0.361003 0.624809 0.392582 Cs
0.249950 0.250338 0.250200 Pb
0.499186 0.249978 0.499432 Pb
0.499437 0.248534 0.249672 Pb
0.249900 0.249944 0.499786 Pb
0.499806 0.500255 0.253465 Pb
0.253941 0.502244 0.500511 Pb
0.249871 0.499621 0.249889 Pb
0.510557 0.500668 0.503516 Pb
0.483990 0.624181 0.736138 Br
0.740428 0.624359 0.470035 Br
0.725256 0.376832 0.731707 Br
0.481505 0.373213 0.488743 Br
0.267298 0.625284 0.263567 Br
0.513208 0.374022 0.269038 Br
0.264716 0.376113 0.516624 Br
0.374466 0.481620 0.727592 Br
0.624340 0.462583 0.463537 Br
0.478839 0.523432 0.378408 Br
0.520580 0.262469 0.626857 Br
0.275597 0.268011 0.376187 Br
0.626451 0.733637 0.273733 Br
0.379605 0.727977 0.525626 Br
0.373856 0.268800 0.726530 Br
0.623870 0.265930 0.472896 Br
0.476584 0.728055 0.376321 Br
0.728113 0.731830 0.622914 Br
0.626978 0.515303 0.273347 Br
0.380468 0.523143 0.523675 Br
0.524797 0.474430 0.630180 Br
0.275699 0.482904 0.376244 Br
0.573692 0.603631 0.527667 Br
