Cs Pb Br                                
   1.0000000000000000     
     8.4200180000000007    0.0000000000000000    8.0779809999999994
     0.0000000000000000   11.7638079999999992    0.0000000000000000
    -8.4200180000000007    0.0000000000000000    8.0779809999999994
   Cs   Pb   Br
     8     8    24
Selective dynamics
Direct
  0.2721250000000026  0.2500000000000000  0.2082359999999994   F   F   F
  0.8140790400278703  0.2826423825972242  0.7655711054697321   T   T   T
  0.8524987154309898  0.7391369639178436  0.1743447532066469   T   T   T
  0.2873913472368130  0.7750603164597862  0.7742379752349606   T   T   T
  0.3514628046397661  0.2443519716418265  0.7342870924560003   T   T   T
  0.7599027926393589  0.2989137971262039  0.2457955550834825   T   T   T
  0.7805566191133977  0.7710363834996485  0.7280983050884871   T   T   T
  0.3032005659360735  0.8003510095093986  0.1973236029406493   T   T   T
  0.0951851477003345  0.0266001655295227  0.9126792671490378   T   T   T
  0.5658614450225912  0.0415231250840691  0.4760956407271451   T   T   T
  0.5894863905157521  0.9842098616245352  0.9759181875976566   T   T   T
  0.0776437000457051  0.0147411124124091  0.4215560469809034   T   T   T
  0.5640149267340178  0.4672800203108594  0.9919058764044735   T   T   T
  0.0568139026766445  0.5153521087180764  0.4516972889522890   T   T   T
  0.0495519265775854  0.5211990493115053  0.9789589144356583   T   T   T
  0.5580609334186803  0.5325764715463848  0.4828965209462126   T   T   T
  0.5685002083251618  0.7360376500217498  0.0098419435536385   T   T   T
  0.1366826826040253  0.7493346114084289  0.4182404726195799   T   T   T
  0.1159930555246547  0.2850216442436064  0.8959855884445105   T   T   T
  0.6347821217579650  0.2877835751219280  0.4942827770824678   T   T   T
  0.0847519052901760  0.7472339049488568  0.9722196674368035   T   T   T
  0.4681399600864609  0.7703514157062443  0.5426663049901563   T   T   T
  0.5930544120064098  0.2360418640646031  0.9551565047360668   T   T   T
  0.9822098459347188  0.2368455846611681  0.4768883220045765   T   T   T
  0.3037177492531242  0.4980887994725194  0.0258044331431435   T   T   T
  0.8168129019225177  0.5586901531882518  0.4595076604275192   T   T   T
  0.5333537337241978  0.5298452756946261  0.2450670882189598   T   T   T
  0.0281933815521143  0.5247355282043813  0.7132237485913606   T   T   T
  0.6052231244808866  0.0250853813318059  0.6952999401549178   T   T   T
  0.0847714202471153  0.0212716670542790  0.1830918275304896   T   T   T
  0.8333126596130072  0.0223134388775037  0.9437499299250192   T   T   T
  0.3057055165390352  0.0792102952108209  0.4532506151806786   T   T   T
  0.3336746404364135  0.0385988613893460  0.9414330487288609   T   T   T
  0.8105670284801292  0.9638205919232306  0.3742614007290044   T   T   T
  0.5002660293655907  0.0561133930636117  0.2080645407182828   T   T   T
  0.0374970113473410  0.9296763630386451  0.6617691469246907   T   T   T
  0.8155821723026193  0.5405943532764965  0.9656261185143080   T   T   T
  0.3006145819817618  0.4499020784096572  0.4778385661360716   T   T   T
  0.5170250324391219  0.5163218199468744  0.7462556216853926   T   T   T
  0.0180463417709049  0.4250221696893277  0.2121544359026544   T   T   T

  0.00000000E+00  0.00000000E+00  0.00000000E+00
  0.00000000E+00  0.00000000E+00  0.00000000E+00
  0.00000000E+00  0.00000000E+00  0.00000000E+00
  0.00000000E+00  0.00000000E+00  0.00000000E+00
  0.00000000E+00  0.00000000E+00  0.00000000E+00
  0.00000000E+00  0.00000000E+00  0.00000000E+00
  0.00000000E+00  0.00000000E+00  0.00000000E+00
  0.00000000E+00  0.00000000E+00  0.00000000E+00
  0.00000000E+00  0.00000000E+00  0.00000000E+00
  0.00000000E+00  0.00000000E+00  0.00000000E+00
  0.00000000E+00  0.00000000E+00  0.00000000E+00
  0.00000000E+00  0.00000000E+00  0.00000000E+00
  0.00000000E+00  0.00000000E+00  0.00000000E+00
  0.00000000E+00  0.00000000E+00  0.00000000E+00
  0.00000000E+00  0.00000000E+00  0.00000000E+00
  0.00000000E+00  0.00000000E+00  0.00000000E+00
  0.00000000E+00  0.00000000E+00  0.00000000E+00
  0.00000000E+00  0.00000000E+00  0.00000000E+00
  0.00000000E+00  0.00000000E+00  0.00000000E+00
  0.00000000E+00  0.00000000E+00  0.00000000E+00
  0.00000000E+00  0.00000000E+00  0.00000000E+00
  0.00000000E+00  0.00000000E+00  0.00000000E+00
  0.00000000E+00  0.00000000E+00  0.00000000E+00
  0.00000000E+00  0.00000000E+00  0.00000000E+00
  0.00000000E+00  0.00000000E+00  0.00000000E+00
  0.00000000E+00  0.00000000E+00  0.00000000E+00
  0.00000000E+00  0.00000000E+00  0.00000000E+00
  0.00000000E+00  0.00000000E+00  0.00000000E+00
  0.00000000E+00  0.00000000E+00  0.00000000E+00
  0.00000000E+00  0.00000000E+00  0.00000000E+00
  0.00000000E+00  0.00000000E+00  0.00000000E+00
  0.00000000E+00  0.00000000E+00  0.00000000E+00
  0.00000000E+00  0.00000000E+00  0.00000000E+00
  0.00000000E+00  0.00000000E+00  0.00000000E+00
  0.00000000E+00  0.00000000E+00  0.00000000E+00
  0.00000000E+00  0.00000000E+00  0.00000000E+00
  0.00000000E+00  0.00000000E+00  0.00000000E+00
  0.00000000E+00  0.00000000E+00  0.00000000E+00
  0.00000000E+00  0.00000000E+00  0.00000000E+00
  0.00000000E+00  0.00000000E+00  0.00000000E+00
