Cs Pb Br 
 1.0000000000000000
     8.4200180000000007    0.0000000000000000    8.0779809999999994
     0.0000000000000000   11.7638079999999992    0.0000000000000000
    -8.4200180000000007    0.0000000000000000    8.0779809999999994
 Cs  Pb  Br 
   8   8  24
Selective dynamics
Cartesian
  0.5379465300020001  2.9409519999999998  3.8803470311410000   F   F   F
  0.4084376821222998  3.3249507215363123 12.7603838619768624   T   T   T
  5.7100685687002741  8.6950653292324205  8.2948220296289268   T   T   T
 -4.0992573709836950  9.1176607512521457  8.5758214959698797   T   T   T
 -3.2233873942499023  2.8745096788159228  8.7706670394915562   T   T   T
  4.3287921941507630  3.5163645179435838  8.1240121446365023   T   T   T
  0.4416999483393592  9.0703239765041914 12.1868858132592450   T   T   T
  0.8914859342067994  9.4151756084747014  4.0432247262269421   T   T   T
  1.5367027993477727  0.3129192400575360  0.0635285937293829   T   T   T
  0.7558296879521175  0.4884700710490033  8.4169095415017079   T   T   T
 -3.2537626872019985 -0.1857521561424101 12.6453084393131086   T   T   T
 -2.8957481516165955  0.1734116161260387  4.0325260716857434   T   T   T
 -3.6028494982623229  5.4969924411730533 12.5686986852574787   T   T   T
 -3.3249252203418744  6.0625032593546067  4.1077437442658526   T   T   T
  0.5943944329092137  6.1312855458830535  0.2303100319990143   T   T   T
  0.6328857059776155  6.2651273565891143  8.4088345381679872   T   T   T
 -3.7161053547750202  8.6586055956270691 12.7498179143760613   T   T   T
  6.0492963400288096  8.8150284963633965 12.5606397043563849   T   T   T
  1.8524668329492244  3.3529398987260945 16.2527252583886543   T   T   T
  1.1830070111559281  3.3854307232879024  9.1205648005999453   T   T   T
  0.9475234683057335  8.7903161889085748  0.4602152820286614   T   T   T
 -0.6275131655633489  9.0622661468964161  8.1652738039698693   T   T   T
  5.3711118613786519  2.7767511688181052  4.4284373694383046   T   T   T
 -4.1652016727207668  2.7862059836017226  3.7085862777484024   T   T   T
 -6.0799828759142809  5.8594210039452141 10.7398549284755802   T   T   T
  3.0085165648822674  6.5723236935972231 10.3100932525729210   T   T   T
  2.4273787443136863  6.2329980929786117  6.2880686096612299   T   T   T
  2.6520499789829262  6.1728880045749266 14.0671344903735402   T   T   T
 -0.7584484093580196  0.2950996095941784 10.5056006061898355   T   T   T
 -0.8278595990933677  0.2502358070664881  2.1637942261457792   T   T   T
  7.4901341961019776 12.0262990107746468  6.2770968340989688   T   T   T
 -1.2423323863743907 12.6956227044834371  6.1308332118653199   T   T   T
 -5.1173367374737984  0.4540695944028395 10.3002956860309816   T   T   T
  3.6737012391657737 -0.4256076101687588  9.5710215394112552   T   T   T
  2.4603417940371139 12.4239151822288214  5.7218808868566713   T   T   T
  3.1636353815402893 10.9365342369248761 13.7266397404644529   T   T   T
  7.1566452721065561  6.3594481778288730  6.3105857302616188   T   T   T
 -1.4922291366110432  5.2925616692121125  6.2883297398860574   T   T   T
 -1.9301256876042030  6.0739107560656151 10.2047571216853825   T   T   T
 -1.6343936465350501  4.9998791999686674  1.8595575082322227   T   T   T
