Cs8 Pb8 Br24
1.0
11.735352 0.000000 0.000000
0.000000 11.735352 0.000000
0.000000 0.000000 11.735352
Cs Pb Br
8 8 24
direct
0.250000 0.250000 0.250000 Cs
0.250000 0.250000 0.750000 Cs
0.250000 0.750000 0.250000 Cs
0.250000 0.750000 0.750000 Cs
0.750000 0.250000 0.250000 Cs
0.750000 0.250000 0.750000 Cs
0.750000 0.750000 0.250000 Cs
0.750000 0.750000 0.750000 Cs
0.000000 0.000000 0.000000 Pb
0.000000 0.000000 0.500000 Pb
0.000000 0.500000 0.000000 Pb
0.000000 0.500000 0.500000 Pb
0.500000 0.000000 0.000000 Pb
0.500000 0.000000 0.500000 Pb
0.500000 0.500000 0.000000 Pb
0.500000 0.500000 0.500000 Pb
0.943750 0.250000 0.062500 Br
0.943750 0.250000 0.437500 Br
0.056250 0.750000 0.937500 Br
0.056250 0.750000 0.562500 Br
0.556250 0.250000 0.937500 Br
0.556250 0.250000 0.562500 Br
0.443750 0.750000 0.062500 Br
0.443750 0.750000 0.437500 Br
0.062500 0.937500 0.250000 Br
0.937500 0.062500 0.750000 Br
0.937500 0.562500 0.250000 Br
0.062500 0.437500 0.750000 Br
0.437500 0.062500 0.250000 Br
0.562500 0.937500 0.750000 Br
0.562500 0.437500 0.250000 Br
0.437500 0.562500 0.750000 Br
0.250000 0.056250 0.937500 Br
0.250000 0.056250 0.562500 Br
0.250000 0.443750 0.062500 Br
0.250000 0.443750 0.437500 Br
0.750000 0.943750 0.062500 Br
0.750000 0.943750 0.437500 Br
0.750000 0.556250 0.937500 Br
0.750000 0.556250 0.562500 Br
