Cs63 Pb64 Br192
1.0
16.840035 0.000000 16.155961
0.000000 23.527616 0.000000
-16.840035 0.000000 16.155961
Cs Pb Br Cs Pb Br Cs
56 56 168 6 8 24 1
direct
0.886274 0.875242 0.353823 Cs
0.136267 0.875254 0.603747 Cs
0.885540 0.375518 0.353786 Cs
0.136971 0.375503 0.603642 Cs
0.886209 0.875261 0.853939 Cs
0.136403 0.875158 0.104318 Cs
0.387084 0.875703 0.353810 Cs
0.636828 0.876215 0.604719 Cs
0.885892 0.375333 0.853784 Cs
0.137200 0.375448 0.105995 Cs
0.386379 0.875137 0.854159 Cs
0.636448 0.874973 0.106024 Cs
0.386315 0.375485 0.854603 Cs
0.636450 0.375841 0.108101 Cs
0.104924 0.125804 0.386405 Cs
0.354091 0.125506 0.636116 Cs
0.105323 0.624937 0.386407 Cs
0.103825 0.125409 0.886460 Cs
0.354332 0.125519 0.137658 Cs
0.605039 0.125889 0.387847 Cs
0.853434 0.125585 0.636065 Cs
0.103945 0.625235 0.886707 Cs
0.353792 0.625220 0.136677 Cs
0.852742 0.625410 0.634696 Cs
0.603829 0.125388 0.886470 Cs
0.853815 0.125662 0.136719 Cs
0.603639 0.625322 0.886436 Cs
0.854539 0.625023 0.136254 Cs
0.896343 0.875127 0.114447 Cs
0.146643 0.875053 0.364232 Cs
0.894992 0.375509 0.114798 Cs
0.146760 0.376255 0.364455 Cs
0.896794 0.875284 0.614063 Cs
0.146578 0.875205 0.864287 Cs
0.397052 0.875001 0.114720 Cs
0.646445 0.875098 0.363675 Cs
0.899468 0.375367 0.614684 Cs
0.146490 0.375373 0.864180 Cs
0.398486 0.375851 0.116641 Cs
0.396668 0.875192 0.614050 Cs
0.646675 0.875210 0.864455 Cs
0.646608 0.375364 0.864622 Cs
0.114281 0.125540 0.146861 Cs
0.364794 0.125799 0.396965 Cs
0.114516 0.625026 0.146936 Cs
0.114220 0.125426 0.646666 Cs
0.364174 0.125402 0.896920 Cs
0.614227 0.125390 0.146436 Cs
0.864119 0.125123 0.397031 Cs
0.114264 0.625096 0.646342 Cs
0.364378 0.625104 0.896807 Cs
0.614212 0.625474 0.147934 Cs
0.863694 0.625671 0.398407 Cs
0.614026 0.125655 0.645952 Cs
0.864057 0.125452 0.896921 Cs
0.864000 0.625103 0.896506 Cs
0.749934 0.749441 0.250678 Pb
0.000153 0.750520 0.500103 Pb
0.749830 0.251428 0.252043 Pb
0.000258 0.250542 0.500069 Pb
0.750123 0.750501 0.750202 Pb
0.000101 0.750317 0.000279 Pb
0.251491 0.750392 0.250410 Pb
0.501700 0.750191 0.499685 Pb
0.750073 0.250454 0.750055 Pb
0.000121 0.250680 0.000303 Pb
0.250133 0.750402 0.750084 Pb
0.500350 0.750319 0.000653 Pb
0.250163 0.250541 0.750027 Pb
0.500203 0.250618 0.000458 Pb
0.000274 0.750317 0.250319 Pb
0.250719 0.750546 0.500220 Pb
0.000081 0.250702 0.250324 Pb
0.000066 0.750383 0.750050 Pb
0.250310 0.750409 0.000332 Pb
0.501886 0.749205 0.252065 Pb
0.749830 0.750707 0.500037 Pb
0.000137 0.250556 0.750123 Pb
0.250403 0.250709 0.000400 Pb
0.750076 0.252188 0.499598 Pb
0.500409 0.750616 0.750088 Pb
0.750060 0.750421 0.000330 Pb
0.500241 0.250659 0.750158 Pb
0.749929 0.250572 0.000740 Pb
0.000107 0.000493 0.250187 Pb
0.250214 0.000606 0.500119 Pb
0.000250 0.500564 0.250356 Pb
0.000109 0.000460 0.750097 Pb
0.250270 0.000530 0.000294 Pb
0.500359 0.000750 0.250295 Pb
0.750137 0.000551 0.500106 Pb
0.000046 0.500697 0.750045 Pb
0.250410 0.500151 0.000502 Pb
0.749964 0.499654 0.499611 Pb
0.500156 0.000509 0.750143 Pb
0.750057 0.000419 0.000278 Pb
0.500620 0.500530 0.750229 Pb
0.749909 0.500529 0.000754 Pb
0.750159 0.000825 0.250362 Pb
0.000156 0.000702 0.500123 Pb
0.749637 0.500611 0.252389 Pb
0.000440 0.500538 0.500129 Pb
0.750161 0.000676 0.750213 Pb
0.000150 0.000521 0.000278 Pb
0.250264 0.000446 0.250319 Pb
0.500223 0.000619 0.500152 Pb
0.750184 0.500528 0.750142 Pb
0.000139 0.500249 0.000384 Pb
0.250175 0.000544 0.750183 Pb
0.500156 0.000445 0.000305 Pb
0.250183 0.500738 0.750073 Pb
0.500467 0.500470 0.000948 Pb
0.984805 0.125672 0.231002 Br
0.235237 0.125948 0.481407 Br
0.985070 0.625820 0.230713 Br
0.235884 0.625751 0.481523 Br
0.984412 0.125708 0.730951 Br
0.234266 0.125784 0.981135 Br
0.484511 0.125730 0.231541 Br
0.735148 0.126053 0.482954 Br
0.983929 0.625828 0.730328 Br
0.234554 0.625598 0.981337 Br
0.482660 0.626157 0.230027 Br
0.484589 0.125750 0.731078 Br
0.734330 0.125569 0.981259 Br
0.734481 0.625798 0.980784 Br
0.231173 0.875661 0.234628 Br
0.480716 0.876343 0.485089 Br
0.232728 0.375805 0.235150 Br
0.230727 0.875776 0.734610 Br
0.480784 0.875709 0.984677 Br
0.732498 0.875736 0.235053 Br
0.981652 0.875948 0.484351 Br
0.231205 0.375735 0.734752 Br
0.480523 0.375622 0.985267 Br
0.735328 0.375864 0.234647 Br
0.982237 0.375707 0.483700 Br
0.731468 0.875937 0.735408 Br
0.980985 0.875662 0.984687 Br
0.979992 0.375619 0.984744 Br
0.770509 0.125486 0.266140 Br
0.020490 0.125728 0.516176 Br
0.773083 0.626091 0.265489 Br
0.019622 0.625948 0.516048 Br
0.770092 0.125698 0.766552 Br
0.019837 0.125694 0.016335 Br
0.269349 0.125562 0.267125 Br
0.518810 0.126194 0.516136 Br
0.769952 0.625850 0.765748 Br
0.019775 0.625610 0.016484 Br
0.269872 0.125700 0.766349 Br
0.519490 0.125594 0.015988 Br
0.270051 0.625864 0.766301 Br
0.519818 0.625740 0.016310 Br
0.016367 0.875834 0.269755 Br
0.265915 0.876038 0.520065 Br
0.016182 0.375705 0.270175 Br
0.016183 0.875776 0.769961 Br
0.266270 0.875749 0.020082 Br
0.516439 0.875982 0.268376 Br
0.767004 0.876390 0.520122 Br
0.016001 0.375789 0.769685 Br
0.267058 0.375611 0.021240 Br
0.769962 0.375552 0.522583 Br
0.516313 0.875920 0.770418 Br
0.765763 0.875738 0.020188 Br
0.515800 0.375677 0.770437 Br
0.764992 0.375660 0.020013 Br
0.874313 0.982316 0.224667 Br
0.124202 0.982313 0.474618 Br
0.875139 0.483121 0.225029 Br
0.125754 0.482892 0.475950 Br
0.874202 0.982217 0.724679 Br
0.124148 0.982203 0.974698 Br
0.374076 0.982388 0.224633 Br
0.624234 0.982343 0.474665 Br
0.874368 0.482153 0.724811 Br
0.124202 0.481991 0.975016 Br
0.375960 0.483679 0.225727 Br
0.374097 0.982194 0.724736 Br
0.624115 0.982233 0.974749 Br
0.624143 0.482245 0.974907 Br
0.974761 0.018304 0.374151 Br
0.224560 0.018290 0.624259 Br
0.975521 0.519178 0.374373 Br
0.225670 0.518779 0.624646 Br
0.974551 0.018303 0.874159 Br
0.224536 0.018311 0.124146 Br
0.474647 0.018242 0.374216 Br
0.724603 0.018311 0.624433 Br
0.974712 0.518291 0.874141 Br
0.225451 0.518357 0.124789 Br
0.474500 0.018291 0.874161 Br
0.724620 0.018168 0.124103 Br
0.474880 0.518223 0.874484 Br
0.725480 0.518347 0.124720 Br
0.025786 0.768271 0.126156 Br
0.276047 0.769085 0.376424 Br
0.025872 0.268484 0.126218 Br
0.026087 0.768416 0.626398 Br
0.275691 0.768301 0.876300 Br
0.525506 0.768105 0.126369 Br
0.776321 0.768509 0.376473 Br
0.026568 0.268386 0.626486 Br
0.275686 0.268394 0.876422 Br
0.525865 0.267589 0.126141 Br
0.779909 0.264758 0.376792 Br
0.525926 0.769291 0.626687 Br
0.775975 0.768421 0.876567 Br
0.775662 0.268173 0.876381 Br
0.126521 0.232984 0.275890 Br
0.376692 0.232705 0.526309 Br
0.126622 0.732309 0.275623 Br
0.126186 0.232284 0.775916 Br
0.376094 0.231996 0.025911 Br
0.626643 0.228272 0.273664 Br
0.876754 0.232561 0.526466 Br
0.126187 0.732101 0.775887 Br
0.376102 0.732221 0.025753 Br
0.876601 0.734578 0.526611 Br
0.626160 0.232145 0.775918 Br
0.876209 0.232248 0.025739 Br
0.626250 0.732519 0.776081 Br
0.876265 0.732308 0.025729 Br
0.874825 0.768393 0.224828 Br
0.124350 0.768125 0.474719 Br
0.874601 0.267817 0.224801 Br
0.124743 0.268301 0.474888 Br
0.874255 0.768435 0.724761 Br
0.124110 0.768234 0.974681 Br
0.374728 0.768293 0.224907 Br
0.624837 0.772887 0.477655 Br
0.874231 0.268273 0.724681 Br
0.124127 0.268606 0.974920 Br
0.374851 0.267287 0.225399 Br
0.374068 0.768381 0.724839 Br
0.624137 0.768298 0.974724 Br
0.624020 0.268180 0.974845 Br
0.975075 0.231958 0.374349 Br
0.224792 0.232153 0.624415 Br
0.974730 0.732227 0.374278 Br
0.224628 0.732281 0.624311 Br
0.974701 0.232226 0.874193 Br
0.224910 0.232241 0.124540 Br
0.475118 0.232487 0.374824 Br
0.724899 0.232271 0.624423 Br
0.974650 0.732126 0.874188 Br
0.224768 0.732222 0.124247 Br
0.474618 0.232248 0.874187 Br
0.725561 0.232593 0.124600 Br
0.474642 0.732309 0.874306 Br
0.724737 0.732281 0.124158 Br
0.126248 0.018280 0.275852 Br
0.376143 0.018282 0.525879 Br
0.127170 0.518053 0.275205 Br
0.126216 0.018381 0.775954 Br
0.376157 0.018696 0.026221 Br
0.626309 0.018634 0.276284 Br
0.876421 0.018398 0.525995 Br
0.126208 0.518575 0.776050 Br
0.376179 0.518422 0.025773 Br
0.877444 0.516999 0.527193 Br
0.626235 0.018367 0.775886 Br
0.876252 0.018353 0.025940 Br
0.626435 0.518370 0.776454 Br
0.876308 0.518153 0.025679 Br
0.025810 0.982223 0.126148 Br
0.275771 0.982283 0.376269 Br
0.025733 0.482099 0.126116 Br
0.025857 0.982299 0.626298 Br
0.275779 0.982224 0.876284 Br
0.525947 0.982517 0.126113 Br
0.775858 0.982395 0.376299 Br
0.026899 0.482691 0.626519 Br
0.275482 0.482168 0.876585 Br
0.525693 0.484094 0.126592 Br
0.780462 0.486369 0.377081 Br
0.525743 0.982613 0.626432 Br
0.775827 0.982308 0.876307 Br
0.776050 0.482518 0.876663 Br
0.389277 0.375242 0.353550 Cs
0.638101 0.375281 0.603648 Cs
0.355655 0.626015 0.636436 Cs
0.398025 0.376437 0.615461 Cs
0.614815 0.625422 0.644730 Cs
0.366752 0.625549 0.398655 Cs
0.250889 0.250701 0.250555 Pb
0.501977 0.252255 0.500044 Pb
0.502025 0.251140 0.251414 Pb
0.251694 0.251015 0.500315 Pb
0.503639 0.501850 0.253229 Pb
0.252935 0.500322 0.500337 Pb
0.252725 0.500760 0.250742 Pb
0.503542 0.501234 0.499657 Pb
0.485862 0.625827 0.731384 Br
0.738229 0.625882 0.488984 Br
0.731209 0.375541 0.735524 Br
0.479503 0.376268 0.486479 Br
0.270891 0.625886 0.267998 Br
0.515677 0.626388 0.519058 Br
0.516352 0.375951 0.264639 Br
0.267510 0.375658 0.521670 Br
0.374198 0.483094 0.725989 Br
0.625675 0.478947 0.478569 Br
0.472671 0.515761 0.375285 Br
0.725323 0.517681 0.625141 Br
0.526732 0.268861 0.626817 Br
0.276764 0.269418 0.376544 Br
0.626950 0.732557 0.276714 Br
0.376394 0.734291 0.526478 Br
0.374052 0.268282 0.724773 Br
0.624659 0.269024 0.474318 Br
0.472115 0.736396 0.374689 Br
0.724447 0.734841 0.624932 Br
0.627507 0.523647 0.274369 Br
0.377393 0.518405 0.527187 Br
0.526833 0.482289 0.626993 Br
0.277407 0.481496 0.376704 Br
0.626578 0.501599 0.376488 Cs
