Cs64 Pb64 Br191
1.0
16.840035 0.000000 16.155961
0.000000 23.527616 0.000000
-16.840035 0.000000 16.155961
Cs Pb Br Cs Pb Br
56 56 168 8 8 23
direct
0.885283 0.874315 0.353586 Cs
0.136071 0.875063 0.603731 Cs
0.886251 0.375078 0.353824 Cs
0.136046 0.374738 0.603529 Cs
0.886435 0.875210 0.853674 Cs
0.135601 0.875055 0.102704 Cs
0.385935 0.878705 0.354408 Cs
0.632739 0.871858 0.603035 Cs
0.886225 0.374679 0.853560 Cs
0.136218 0.374703 0.104074 Cs
0.386339 0.874987 0.852587 Cs
0.635875 0.875039 0.104035 Cs
0.385932 0.374155 0.853511 Cs
0.636465 0.375057 0.102897 Cs
0.103747 0.124888 0.386008 Cs
0.353288 0.124581 0.635635 Cs
0.102740 0.625117 0.386105 Cs
0.103367 0.124873 0.885877 Cs
0.353706 0.124680 0.135473 Cs
0.603188 0.124809 0.385699 Cs
0.853848 0.124750 0.636312 Cs
0.103844 0.625063 0.885934 Cs
0.353324 0.625389 0.135380 Cs
0.853346 0.624782 0.634781 Cs
0.603783 0.125060 0.885938 Cs
0.853716 0.124875 0.135730 Cs
0.604334 0.626153 0.888459 Cs
0.853088 0.625206 0.137152 Cs
0.896729 0.875116 0.113902 Cs
0.145687 0.875176 0.363653 Cs
0.896663 0.374822 0.113715 Cs
0.146121 0.374516 0.364135 Cs
0.896733 0.875258 0.614011 Cs
0.146194 0.875110 0.863826 Cs
0.396605 0.876043 0.112814 Cs
0.645321 0.875373 0.363166 Cs
0.898170 0.374558 0.614480 Cs
0.146270 0.374758 0.863783 Cs
0.392803 0.374863 0.113969 Cs
0.397694 0.873594 0.614208 Cs
0.645706 0.875220 0.863774 Cs
0.646704 0.374679 0.864373 Cs
0.113364 0.124577 0.145923 Cs
0.363011 0.122961 0.396863 Cs
0.114280 0.624791 0.146405 Cs
0.113902 0.124803 0.646325 Cs
0.364067 0.124987 0.896413 Cs
0.614226 0.125081 0.145879 Cs
0.864308 0.124811 0.396445 Cs
0.113639 0.624967 0.646029 Cs
0.363017 0.625830 0.896484 Cs
0.613865 0.627240 0.146469 Cs
0.865117 0.624846 0.396954 Cs
0.613916 0.124920 0.645841 Cs
0.864157 0.124834 0.896486 Cs
0.863629 0.625095 0.895516 Cs
0.750213 0.751482 0.248776 Pb
0.000211 0.750404 0.500088 Pb
0.750306 0.249633 0.249820 Pb
0.000045 0.249506 0.499990 Pb
0.750325 0.751130 0.750213 Pb
0.000014 0.749687 0.999973 Pb
0.249366 0.750934 0.249441 Pb
0.499667 0.744183 0.493326 Pb
0.750245 0.249301 0.750228 Pb
0.000007 0.249888 0.999913 Pb
0.249740 0.750282 0.750145 Pb
0.499689 0.750539 0.999572 Pb
0.249919 0.249531 0.750146 Pb
0.499935 0.250275 0.000123 Pb
0.000259 0.750017 0.249905 Pb
0.249961 0.750136 0.500119 Pb
0.999798 0.249624 0.249830 Pb
0.000022 0.749772 0.749994 Pb
0.249800 0.750355 0.999919 Pb
0.497147 0.751389 0.248891 Pb
0.750816 0.751098 0.501226 Pb
0.999979 0.249664 0.750012 Pb
0.249748 0.249540 0.999619 Pb
0.750182 0.248859 0.500095 Pb
0.500187 0.749469 0.749121 Pb
0.750314 0.750421 0.999825 Pb
0.499874 0.249945 0.749724 Pb
0.750152 0.249694 0.999930 Pb
0.999919 0.999943 0.249957 Pb
0.249783 0.999232 0.500301 Pb
0.000158 0.499673 0.249949 Pb
0.000029 0.999782 0.749977 Pb
0.249868 0.999871 0.999760 Pb
0.499889 0.000665 0.249516 Pb
0.750021 0.000178 0.500157 Pb
0.000063 0.499974 0.750064 Pb
0.249555 0.499939 0.999648 Pb
0.750683 0.496805 0.500968 Pb
0.499921 0.000386 0.749896 Pb
0.750047 0.999936 0.999922 Pb
0.500021 0.500488 0.753045 Pb
0.750521 0.499977 0.000046 Pb
0.750229 0.000636 0.250006 Pb
0.999980 0.999847 0.499940 Pb
0.750456 0.499112 0.249122 Pb
0.000156 0.499462 0.500091 Pb
0.749934 0.999792 0.749855 Pb
0.999948 0.999795 0.999893 Pb
0.249616 0.999666 0.249523 Pb
0.500312 0.999108 0.500281 Pb
0.750487 0.499268 0.750416 Pb
0.999981 0.500004 0.999938 Pb
0.249995 0.999910 0.750028 Pb
0.500039 0.000312 0.999875 Pb
0.249769 0.499639 0.750203 Pb
0.499628 0.500330 0.999632 Pb
0.983991 0.124852 0.230330 Br
0.233812 0.123948 0.481979 Br
0.984550 0.624644 0.230873 Br
0.232768 0.624655 0.480920 Br
0.984457 0.124790 0.730606 Br
0.234212 0.124838 0.980038 Br
0.484924 0.126613 0.229694 Br
0.733561 0.124547 0.479408 Br
0.983927 0.624728 0.729977 Br
0.234145 0.624910 0.981399 Br
0.483865 0.624426 0.231812 Br
0.484203 0.125503 0.729435 Br
0.734227 0.124995 0.980451 Br
0.734887 0.624970 0.981259 Br
0.229151 0.874821 0.233298 Br
0.486215 0.867260 0.488112 Br
0.233184 0.374188 0.235875 Br
0.230591 0.874789 0.734294 Br
0.480794 0.875191 0.983166 Br
0.731893 0.875768 0.234204 Br
0.980343 0.874868 0.483705 Br
0.231122 0.374776 0.734032 Br
0.479604 0.375872 0.985509 Br
0.730872 0.375334 0.233129 Br
0.981472 0.374613 0.483914 Br
0.728954 0.875073 0.733451 Br
0.980905 0.874671 0.984256 Br
0.980759 0.374994 0.984168 Br
0.769935 0.125631 0.265901 Br
0.019610 0.124689 0.515545 Br
0.763899 0.625382 0.268654 Br
0.017690 0.624758 0.515584 Br
0.769657 0.124695 0.765926 Br
0.019017 0.124873 0.015338 Br
0.270086 0.124058 0.265240 Br
0.517279 0.122786 0.514826 Br
0.767184 0.624990 0.763550 Br
0.019995 0.624727 0.015750 Br
0.269919 0.124800 0.765657 Br
0.519198 0.125663 0.015618 Br
0.267325 0.624698 0.767233 Br
0.518855 0.624647 0.016830 Br
0.014937 0.874772 0.269465 Br
0.266977 0.874078 0.520742 Br
0.015581 0.374778 0.269440 Br
0.015635 0.874675 0.769000 Br
0.265675 0.874965 0.019332 Br
0.514703 0.876012 0.266186 Br
0.764543 0.875042 0.520339 Br
0.015518 0.374908 0.768921 Br
0.264818 0.374858 0.018432 Br
0.767422 0.373353 0.520699 Br
0.515922 0.874692 0.765605 Br
0.765714 0.874974 0.019993 Br
0.516414 0.375636 0.768224 Br
0.765754 0.375058 0.019382 Br
0.873831 0.982137 0.224518 Br
0.123947 0.981698 0.474616 Br
0.873780 0.482385 0.224345 Br
0.124807 0.482152 0.474348 Br
0.873804 0.981937 0.724528 Br
0.123942 0.982078 0.974379 Br
0.373896 0.982284 0.224317 Br
0.623662 0.982079 0.474412 Br
0.873614 0.482142 0.724555 Br
0.123948 0.481982 0.974454 Br
0.375140 0.481892 0.228340 Br
0.374006 0.981869 0.724103 Br
0.623838 0.982083 0.974558 Br
0.623396 0.481888 0.975544 Br
0.974576 0.017844 0.373853 Br
0.224453 0.017829 0.623973 Br
0.974483 0.517680 0.373870 Br
0.224595 0.517636 0.623747 Br
0.974544 0.017807 0.873826 Br
0.224473 0.018052 0.123835 Br
0.474636 0.017184 0.373968 Br
0.724359 0.018109 0.623771 Br
0.974525 0.518032 0.873860 Br
0.225261 0.516898 0.124112 Br
0.474659 0.017940 0.873621 Br
0.724544 0.018060 0.123938 Br
0.474669 0.517908 0.876715 Br
0.723621 0.518640 0.124186 Br
0.025532 0.767823 0.126116 Br
0.274502 0.770165 0.375917 Br
0.025418 0.267947 0.126057 Br
0.025593 0.767962 0.626011 Br
0.275590 0.768081 0.876004 Br
0.524414 0.768201 0.124850 Br
0.772791 0.764883 0.376173 Br
0.025523 0.267781 0.625993 Br
0.275555 0.267867 0.876118 Br
0.524588 0.270933 0.126461 Br
0.775759 0.267984 0.376077 Br
0.526181 0.757012 0.622936 Br
0.775739 0.768134 0.876139 Br
0.775407 0.267834 0.876084 Br
0.125967 0.231760 0.275026 Br
0.376071 0.231995 0.525221 Br
0.126169 0.732044 0.275567 Br
0.126205 0.232004 0.775451 Br
0.376099 0.232207 0.025383 Br
0.625958 0.232211 0.275362 Br
0.875856 0.231595 0.525449 Br
0.126005 0.732116 0.775368 Br
0.376079 0.732058 0.025037 Br
0.876330 0.734173 0.525887 Br
0.625937 0.232050 0.775016 Br
0.875994 0.232078 0.025440 Br
0.626095 0.732303 0.776756 Br
0.876067 0.731718 0.025667 Br
0.874024 0.767575 0.224286 Br
0.124367 0.768019 0.474597 Br
0.873762 0.268078 0.224434 Br
0.123807 0.267648 0.474639 Br
0.873698 0.767943 0.724340 Br
0.123878 0.767915 0.974233 Br
0.372973 0.767937 0.220739 Br
0.623931 0.762424 0.470129 Br
0.873880 0.267740 0.724500 Br
0.123893 0.267878 0.974414 Br
0.373779 0.266100 0.223202 Br
0.373947 0.767436 0.724442 Br
0.623935 0.767963 0.974721 Br
0.623745 0.268120 0.974779 Br
0.974565 0.231999 0.373822 Br
0.224446 0.232037 0.624159 Br
0.974402 0.732124 0.373885 Br
0.224448 0.731924 0.623807 Br
0.974479 0.232053 0.873823 Br
0.223965 0.231727 0.123650 Br
0.473449 0.229579 0.373562 Br
0.724404 0.231899 0.623790 Br
0.974477 0.731889 0.873819 Br
0.223924 0.732401 0.123789 Br
0.474738 0.232536 0.873668 Br
0.724427 0.232156 0.123953 Br
0.474958 0.731777 0.873001 Br
0.724832 0.731954 0.123797 Br
0.126089 0.018080 0.275315 Br
0.376357 0.016337 0.525441 Br
0.126437 0.516845 0.276543 Br
0.126160 0.017895 0.775369 Br
0.376189 0.017931 0.025197 Br
0.625994 0.017917 0.275337 Br
0.875952 0.017982 0.525388 Br
0.126233 0.517647 0.775374 Br
0.376339 0.517930 0.025359 Br
0.876217 0.514519 0.525932 Br
0.625941 0.018163 0.775352 Br
0.876053 0.017851 0.025353 Br
0.625885 0.517833 0.778523 Br
0.875915 0.518253 0.025886 Br
0.025403 0.982032 0.126067 Br
0.274374 0.982475 0.376163 Br
0.025667 0.481938 0.126173 Br
0.025441 0.981978 0.625990 Br
0.275674 0.981874 0.876077 Br
0.525579 0.982559 0.125897 Br
0.775289 0.981780 0.376083 Br
0.025719 0.481992 0.626040 Br
0.275805 0.481928 0.875985 Br
0.522353 0.481631 0.133043 Br
0.774446 0.483220 0.376232 Br
0.525749 0.982340 0.625774 Br
0.775317 0.981791 0.876035 Br
0.775872 0.482140 0.876468 Br
0.378119 0.366860 0.349507 Cs
0.638058 0.374538 0.605947 Cs
0.637857 0.630304 0.378078 Cs
0.350543 0.625276 0.638528 Cs
0.393213 0.374454 0.613173 Cs
0.649535 0.372218 0.363991 Cs
0.619605 0.625394 0.655163 Cs
0.358524 0.630759 0.393077 Cs
0.249271 0.247951 0.249151 Pb
0.499423 0.250083 0.499197 Pb
0.500080 0.250255 0.250049 Pb
0.249456 0.248927 0.500448 Pb
0.500827 0.499641 0.248707 Pb
0.250048 0.500285 0.500027 Pb
0.249422 0.499871 0.250186 Pb
0.500650 0.496913 0.504533 Pb
0.483569 0.624142 0.731780 Br
0.743585 0.623835 0.492391 Br
0.731253 0.374629 0.735629 Br
0.475309 0.374248 0.478294 Br
0.266764 0.624918 0.262976 Br
0.513623 0.376729 0.277542 Br
0.264803 0.374507 0.516735 Br
0.374865 0.481968 0.725074 Br
0.623323 0.478287 0.475053 Br
0.723659 0.514598 0.624347 Br
0.523929 0.270925 0.624837 Br
0.271894 0.263260 0.376009 Br
0.624983 0.738170 0.270242 Br
0.376938 0.728418 0.524525 Br
0.373979 0.268097 0.724466 Br
0.623445 0.268040 0.475076 Br
0.464447 0.744685 0.370490 Br
0.723405 0.734303 0.624191 Br
0.625720 0.515297 0.275565 Br
0.377298 0.518855 0.527580 Br
0.529171 0.491046 0.625498 Br
0.279759 0.484439 0.376245 Br
0.505726 0.608571 0.450352 Br
