Cs64 Pb64 Br191
1.0
16.840035 0.000000 16.155961
0.000000 23.527616 0.000000
-16.840035 0.000000 16.155961
Cs Pb Br Cs Pb Br
56 56 168 8 8 23
Selective dynamics
direct
0.886049 0.875212 0.353407 F F F
0.136086 0.875048 0.603500 F F F
0.886682 0.374140 0.351422 F F F
0.136293 0.374296 0.606412 F F F
0.886429 0.875187 0.853879 F F F
0.136019 0.875098 0.103325 F F F
0.385771 0.875302 0.353696 F F F
0.635966 0.875104 0.603193 F F F
0.885790 0.374922 0.853207 F F F
0.136072 0.374878 0.103404 F F F
0.385999 0.875174 0.853712 F F F
0.636076 0.875030 0.103604 F F F
0.386629 0.374802 0.853228 F F F
0.636002 0.374812 0.102457 F F F
0.103705 0.124863 0.386041 F F F
0.353597 0.124909 0.635878 F F F
0.102627 0.625884 0.385292 F F F
0.103649 0.124937 0.886131 F F F
0.353432 0.124915 0.135810 F F F
0.603648 0.124725 0.385825 F F F
0.853903 0.124624 0.636050 F F F
0.103856 0.625035 0.885942 F F F
0.354339 0.625184 0.136019 F F F
0.854019 0.627759 0.638954 F F F
0.603758 0.125010 0.885900 F F F
0.853877 0.124836 0.135850 F F F
0.603886 0.625103 0.886373 F F F
0.853620 0.625168 0.136182 F F F
0.896476 0.875153 0.113833 F F F
0.146517 0.875108 0.363884 F F F
0.896330 0.374992 0.113632 F F F
0.146622 0.374012 0.362363 F F F
0.896526 0.875069 0.613949 F F F
0.146502 0.875171 0.864110 F F F
0.396157 0.875352 0.113536 F F F
0.646848 0.876057 0.363093 F F F
0.895775 0.373310 0.614442 F F F
0.146235 0.374852 0.863964 F F F
0.396097 0.375117 0.113860 F F F
0.396307 0.875059 0.614104 F F F
0.646385 0.875141 0.864201 F F F
0.646373 0.374883 0.864488 F F F
0.113894 0.124895 0.146036 F F F
0.363939 0.124850 0.396361 F F F
0.113967 0.625125 0.146244 F F F
0.114063 0.124854 0.646193 F F F
0.363960 0.124838 0.896570 F F F
0.613869 0.124844 0.146053 F F F
0.864277 0.124856 0.396565 F F F
0.113742 0.625434 0.646832 F F F
0.363983 0.625164 0.896773 F F F
0.614095 0.625398 0.146004 F F F
0.863444 0.626567 0.393096 F F F
0.613726 0.124198 0.646222 F F F
0.864355 0.124816 0.897013 F F F
0.864060 0.625224 0.896674 F F F
0.750522 0.750890 0.249450 F F F
0.000013 0.749976 0.499984 F F F
0.750305 0.249466 0.249589 F F F
0.000078 0.249804 0.499924 F F F
0.749991 0.750771 0.750250 F F F
0.000058 0.750010 0.999957 F F F
0.249698 0.750442 0.249717 F F F
0.500146 0.749854 0.500197 F F F
0.750793 0.248316 0.750888 F F F
0.000038 0.250070 0.999963 F F F
0.249816 0.750468 0.750274 F F F
0.499896 0.750296 0.999819 F F F
0.249981 0.249543 0.750280 F F F
0.499992 0.249845 0.000149 F F F
0.000214 0.750388 0.249815 F F F
0.250041 0.749794 0.499875 F F F
0.000119 0.249646 0.249794 F F F
0.000230 0.750465 0.750243 F F F
0.249930 0.750107 0.999987 F F F
0.499267 0.751480 0.249345 F F F
0.749728 0.749700 0.499699 F F F
0.000095 0.249581 0.750153 F F F
0.250012 0.249950 0.999945 F F F
0.749965 0.249522 0.500136 F F F
0.499963 0.750317 0.750243 F F F
0.750092 0.750270 0.000016 F F F
0.499597 0.248957 0.750567 F F F
0.750114 0.249671 0.000025 F F F
0.000067 0.999992 0.249934 F F F
0.250006 0.999878 0.499989 F F F
0.000173 0.499947 0.249693 F F F
0.000075 0.000071 0.750053 F F F
0.249978 0.000077 0.999954 F F F
0.499848 0.000388 0.249820 F F F
0.750090 0.999677 0.499998 F F F
0.999952 0.500070 0.750183 F F F
0.249943 0.500001 0.999982 F F F
0.755039 0.500996 0.500743 F F F
0.499985 0.999680 0.750124 F F F
0.750027 0.999963 0.999988 F F F
0.499783 0.500165 0.750266 F F F
0.750134 0.500130 0.999954 F F F
0.750160 0.000380 0.249854 F F F
0.000038 0.999752 0.499960 F F F
0.749811 0.499556 0.249481 F F F
0.000858 0.499394 0.499532 F F F
0.750073 0.999547 0.750084 F F F
0.000056 0.000003 0.999999 F F F
0.249947 0.000159 0.249896 F F F
0.499932 0.999665 0.499923 F F F
0.750296 0.500662 0.750349 F F F
0.000026 0.499948 0.999931 F F F
0.249992 0.999985 0.750057 F F F
0.500019 0.000039 0.999969 F F F
0.250129 0.499986 0.750492 F F F
0.499997 0.500114 0.000020 F F F
0.984391 0.125042 0.230485 F F F
0.234586 0.125236 0.480981 F F F
0.984253 0.624935 0.231313 F F F
0.233779 0.624291 0.478580 F F F
0.984469 0.125002 0.730174 F F F
0.234342 0.125100 0.980493 F F F
0.484119 0.125592 0.230261 F F F
0.734229 0.125276 0.480668 F F F
0.984827 0.625151 0.731191 F F F
0.234375 0.624931 0.980697 F F F
0.485938 0.625425 0.232716 F F F
0.484170 0.124468 0.730696 F F F
0.734241 0.124980 0.980450 F F F
0.734363 0.624976 0.981044 F F F
0.230444 0.875132 0.234089 F F F
0.480520 0.873900 0.484690 F F F
0.231229 0.374971 0.233662 F F F
0.230380 0.874974 0.734052 F F F
0.480606 0.875056 0.984055 F F F
0.731830 0.875468 0.233615 F F F
0.980404 0.874479 0.484225 F F F
0.231597 0.375070 0.734945 F F F
0.480938 0.375193 0.984411 F F F
0.730430 0.374862 0.232854 F F F
0.978558 0.375500 0.483939 F F F
0.729732 0.874836 0.733762 F F F
0.980900 0.874952 0.984406 F F F
0.980286 0.375121 0.983975 F F F
0.770203 0.125378 0.266080 F F F
0.018926 0.125146 0.515485 F F F
0.766474 0.624821 0.265183 F F F
0.019062 0.623995 0.515824 F F F
0.770502 0.124260 0.766387 F F F
0.019123 0.125117 0.015500 F F F
0.269822 0.125088 0.265846 F F F
0.519155 0.125162 0.514962 F F F
0.768156 0.625221 0.766438 F F F
0.019541 0.624872 0.015432 F F F
0.269829 0.124948 0.765712 F F F
0.519581 0.125114 0.015489 F F F
0.268029 0.625049 0.767257 F F F
0.519202 0.625019 0.015672 F F F
0.015854 0.875027 0.269634 F F F
0.266125 0.874360 0.519069 F F F
0.016253 0.375035 0.268774 F F F
0.016000 0.875111 0.769481 F F F
0.265654 0.875018 0.019069 F F F
0.515351 0.875739 0.269854 F F F
0.765885 0.873966 0.518844 F F F
0.015459 0.375094 0.768618 F F F
0.265737 0.375094 0.019238 F F F
0.758957 0.376298 0.523179 F F F
0.515868 0.874542 0.769525 F F F
0.765759 0.874988 0.019528 F F F
0.517153 0.374657 0.766522 F F F
0.765784 0.375075 0.018609 F F F
0.873967 0.982146 0.224509 F F F
0.123938 0.982037 0.474536 F F F
0.873657 0.482155 0.224780 F F F
0.122860 0.481403 0.474372 F F F
0.873903 0.981848 0.724469 F F F
0.123945 0.982152 0.974530 F F F
0.373992 0.982066 0.224523 F F F
0.623907 0.982106 0.474480 F F F
0.873742 0.483527 0.722869 F F F
0.123938 0.482002 0.974511 F F F
0.374374 0.482279 0.225643 F F F
0.373984 0.981953 0.724483 F F F
0.623928 0.982080 0.974579 F F F
0.623934 0.482196 0.974560 F F F
0.974592 0.017916 0.373972 F F F
0.224643 0.017881 0.623815 F F F
0.974209 0.518038 0.374282 F F F
0.224336 0.518507 0.623446 F F F
0.974622 0.017929 0.873829 F F F
0.224584 0.018008 0.123935 F F F
0.474563 0.017940 0.373985 F F F
0.724688 0.017849 0.623787 F F F
0.974401 0.517836 0.873590 F F F
0.224724 0.517897 0.123994 F F F
0.474620 0.017945 0.873818 F F F
0.724590 0.018109 0.123963 F F F
0.474648 0.517666 0.873593 F F F
0.724340 0.517829 0.124446 F F F
0.025577 0.767909 0.126132 F F F
0.275600 0.767802 0.376078 F F F
0.025470 0.267987 0.126092 F F F
0.025321 0.767887 0.625953 F F F
0.275520 0.768083 0.875940 F F F
0.525123 0.768096 0.125975 F F F
0.775291 0.767959 0.375973 F F F
0.025246 0.267926 0.625911 F F F
0.275671 0.268010 0.876041 F F F
0.525572 0.268178 0.126230 F F F
0.775171 0.268640 0.376418 F F F
0.525530 0.767845 0.625916 F F F
0.775596 0.768141 0.875830 F F F
0.775709 0.267377 0.876260 F F F
0.126139 0.232000 0.275505 F F F
0.375993 0.232536 0.525245 F F F
0.126196 0.732213 0.275385 F F F
0.126212 0.232054 0.775410 F F F
0.376165 0.232112 0.025535 F F F
0.626173 0.232080 0.275658 F F F
0.875864 0.232472 0.525681 F F F
0.126068 0.732211 0.775447 F F F
0.376125 0.732073 0.025375 F F F
0.875787 0.730272 0.524264 F F F
0.626289 0.232515 0.774441 F F F
0.876063 0.232077 0.025553 F F F
0.626069 0.732296 0.775859 F F F
0.876077 0.732004 0.025465 F F F
0.874247 0.767850 0.224396 F F F
0.124087 0.767760 0.474542 F F F
0.873897 0.268040 0.224382 F F F
0.123769 0.268541 0.474571 F F F
0.873838 0.768092 0.724540 F F F
0.123932 0.767920 0.974443 F F F
0.373810 0.768108 0.224165 F F F
0.623843 0.769172 0.473474 F F F
0.874083 0.267245 0.724520 F F F
0.123936 0.267979 0.974544 F F F
0.374048 0.268148 0.224595 F F F
0.373951 0.768023 0.724523 F F F
0.623929 0.767927 0.974580 F F F
0.623939 0.267844 0.974488 F F F
0.974520 0.232107 0.373921 F F F
0.224632 0.232196 0.623850 F F F
0.974709 0.732206 0.373961 F F F
0.224601 0.731853 0.623781 F F F
0.974520 0.232082 0.873813 F F F
0.224568 0.231978 0.123972 F F F
0.474527 0.232188 0.373924 F F F
0.724662 0.231460 0.624160 F F F
0.974543 0.732117 0.873843 F F F
0.224597 0.732099 0.123892 F F F
0.474442 0.232085 0.874113 F F F
0.724510 0.231887 0.124144 F F F
0.474550 0.731976 0.873750 F F F
0.724754 0.732104 0.123797 F F F
0.126141 0.018044 0.275463 F F F
0.376193 0.017798 0.525397 F F F
0.126049 0.517880 0.275694 F F F
0.126123 0.018067 0.775381 F F F
0.376142 0.017968 0.025408 F F F
0.626135 0.018091 0.275323 F F F
0.876005 0.017805 0.525396 F F F
0.126191 0.517643 0.775145 F F F
0.376206 0.517935 0.025528 F F F
0.871859 0.518834 0.526115 F F F
0.626122 0.018030 0.775353 F F F
0.876077 0.017872 0.025414 F F F
0.626120 0.517492 0.775588 F F F
0.876036 0.518068 0.025520 F F F
0.025492 0.982066 0.126106 F F F
0.275416 0.982158 0.376132 F F F
0.025451 0.482104 0.126174 F F F
0.025465 0.981997 0.625949 F F F
0.275480 0.982067 0.876003 F F F
0.525483 0.982041 0.126120 F F F
0.775510 0.982177 0.376146 F F F
0.024718 0.481852 0.625144 F F F
0.275778 0.481910 0.875766 F F F
0.525997 0.482522 0.126680 F F F
0.774283 0.478588 0.377083 F F F
0.525469 0.982048 0.625911 F F F
0.775467 0.981846 0.876007 F F F
0.775557 0.482743 0.875703 F F F
0.386203 0.374598 0.353878 F F F
0.635900 0.367606 0.617935 F F F
0.601189 0.633108 0.378967 F F F
0.351991 0.627432 0.639217 F F F
0.396518 0.372366 0.614293 F F F
0.646823 0.370202 0.360598 F F F
0.614664 0.626815 0.650375 F F F
0.363049 0.625360 0.392688 F F F
0.249992 0.249637 0.249811 F F F
0.499761 0.249487 0.499569 F F F
0.499707 0.249827 0.249593 F F F
0.249711 0.250112 0.499909 F F F
0.500297 0.499844 0.249874 F F F
0.246385 0.500053 0.499701 F F F
0.249776 0.499819 0.249694 F F F
0.492487 0.502961 0.503465 F F F
0.483724 0.624608 0.730634 F F F
0.730962 0.623229 0.475906 F F F
0.735846 0.374699 0.738844 F F F
0.484737 0.377136 0.484776 F F F
0.268581 0.624958 0.264347 F F F
0.528263 0.623651 0.514722 F F F
0.515589 0.375355 0.270258 F F F
0.265597 0.375936 0.520214 F F F
0.374188 0.481918 0.723047 F F F
0.478762 0.518633 0.376335 F F F
0.721900 0.517743 0.622364 F F F
0.522852 0.264689 0.626038 F F F
0.275460 0.268170 0.376151 F F F
0.626109 0.736425 0.271823 F F F
0.376588 0.728704 0.524538 F F F
0.374056 0.267727 0.724843 F F F
0.474100 0.732525 0.373918 F F F
0.724837 0.731789 0.623585 F F F
0.626300 0.515955 0.279785 F F F
0.377068 0.520688 0.526683 F F F
0.528648 0.481910 0.625432 F F F
0.275373 0.481878 0.376632 F F F
0.623790 0.269282 0.476235 T T T