Geometry = GenFormat {
39  S
Cs   Pb   Br
1      1      0.562692962904000      2.940952000000000      3.972621808104000
2      1      0.599522121636000      2.940952000000000     11.877217023920000
3      1     -4.770504338206001      8.822867763808000      7.858074123236999
4      1     -3.654616192702001      2.940940236192000      8.272878447586999
5      1      4.670104043574000      2.940952000000000      8.165344364515001
6      1     -0.441267883326000      8.822856000000000     12.414006939350999
7      2     -0.002433385202000      0.019151479424000     -0.000137325677000
8      2     -0.002685985742000     -0.042232070720000      8.066744528429000
9      2      4.197547373360000     -0.031844628256000      4.040541472352000
10     2     -4.105718657052000     -0.012010847968000      4.039669050403999
11     2      4.197623153522000      5.913795683488000      4.040630330142999
12     2     -4.105684976980000      5.893903084160000      4.039636738480000
13     2     -0.002458645256000      5.862717229152000     -0.000096935772000
14     2     -0.002677565724001      5.924183125951999      8.066752606409999
15     3     -3.988293086024000      8.822832472384000     11.468325781661999
16     3      4.121901931648001      8.822856000000000     11.618156173249998
17     3     -0.126106609586000      2.940952000000000     15.442118897010999
18     3     -0.002256564824000      2.940963763808000      7.614062551169999
19     3      0.034538913836000      8.822856000000000      0.315267442468000
20     3      0.042546350954000      8.822867763808000      8.796751671398999
21     3      4.187839092606001      2.940928472384000      4.522514208716999
22     3     -4.279726749040001      2.940952000000000      4.623254709768000
23     3     -5.923667903396001      5.431491319296000      9.671217348592000
24     3      2.513400633054001      5.477299587648000      9.694845443017000
25     3      1.728840195850000      6.284885006847999      5.649861081115000
26     3      1.734591068144000      6.207596788287999     13.708123729493998
27     3     -1.668696007276000      0.425332242048000     10.539002535497998
28     3     -1.747886276566000      0.669878282752000      2.334996953917000
29     3      5.873417235972001     11.333664360480000      6.486214843950000
30     3     -2.616992114508000     11.502016216767998      6.613055301612000
31     3     -5.923701583468000      0.450400916896000      9.671217348591998
32     3      2.513400633054001      0.404604412352000      9.694845443017000
33     3      1.728840195850000     11.360815229343999      5.649861081115000
34     3      1.734591068144000     11.438115211711999     13.708123729493998
35     3      5.873434076008001      6.312035875712000      6.486198687988000
36     3     -2.616983694490000      6.143695783231999      6.613063379592999
37     3     -1.668696007276000      5.456571757951999     10.539002535497998
38     3     -1.747877856548000      5.212025717247999      2.335005031898000
39     1      3.622047563078001      8.822844236191999      7.960745261746999
0.000000000000000      0.000000000000000      0.000000000000000
8.420018000000001      0.000000000000000      8.077980999999999
0.000000000000000     11.763807999999999      0.000000000000000
-8.420018000000001      0.000000000000000      8.077980999999999
}
Hamiltonian = DFTB {
  Filling = Fermi {
    Temperature [Kelvin] = 20.0
    IndependentKFilling = No
  }
  KPointsAndWeights = SupercellFolding {
2 0 0 0 2 0 0 0 2 0.0 0.0 0.0
  }
  MaxAngularMomentum = {
    Br = "p"
    Cs = "s"
    Pb = "p"
  }
  MaxSCCIterations = 1500
  ReadInitialCharges = No
  SCC = Yes
  SCCTolerance = 1.0E-006
  ShellResolvedSCC = Yes
  SlaterKosterFiles = Type2FileNames {
    Prefix = /Users/tjams20/Documents/UBath/DFTB/DFTB_CCS/DFTB_PARAMS/Cs_w3_00_c9_00_Pb_w3_00_c9_00_Br_w3_00_c9_00/
    Separator = "-"
    Suffix = ".skf"
    LowerCaseTypeName = No
  }
  PolynomialRepulsive = {}
  OldSKInterpolation = No
  RangeSeparated = None {}
  InitialCharges = {}
  EwaldParameter = 0.0000000000000000
  EwaldTolerance = 1.0000000000000001E-009
  HCorrection = None {}
  SpinPolarisation = {}
  ElectricField = {}
  Solver = RelativelyRobust {}
  Charge = 0.0000000000000000
  OnSiteCorrection = {}
  Dispersion = {}
  Solvation = {}
  Electrostatics = GammaFunctional {}
  ThirdOrder = No
  ThirdOrderFull = No
  Differentiation = FiniteDiff {
    Delta = 1.2207031250000000E-004
  }
  ForceEvaluation = "Traditional"
  Mixer = Broyden {
    MixingParameter = 0.20000000000000001
    InverseJacobiWeight = 1.0000000000000000E-002
    MinimalWeight = 1.0000000000000000
    MaximalWeight = 100000.00000000000
    WeightFactor = 1.0000000000000000E-002
  }
}
Options = {
  WriteResultsTag = Yes
  WriteDetailedOut = Yes
  WriteAutotestTag = No
  WriteDetailedXML = No
  RestartFrequency = 20
  RandomSeed = 0
  WriteHS = No
  WriteRealHS = No
  MinimiseMemoryUsage = No
  ShowFoldedCoords = No
  TimingVerbosity = 1
  WriteChargesAsText = No
}
ParserOptions = {
  IgnoreUnprocessedNodes = Yes
  ParserVersion = 9
  WriteHSDInput = Yes
  StopAfterParsing = No
}
Reks = None {}
Driver = {}
Analysis = {
  ProjectStates = {}
  WriteEigenvectors = No
  WriteBandOut = Yes
  MullikenAnalysis = Yes
  WriteNetCharges = No
  AtomResolvedEnergies = No
  CalculateForces = No
  EigenvectorsAsText = No
}
ExcitedState = {}
