Cs64 Pb64 Br191
1.0
16.840035 0.000000 16.155961
0.000000 23.527616 0.000000
-16.840035 0.000000 16.155961
Cs Pb Br Cs Pb Br
56 56 168 8 8 23
direct
0.886056 0.875038 0.353647 Cs
0.135902 0.875017 0.603725 Cs
0.886253 0.374969 0.353565 Cs
0.135449 0.374785 0.603762 Cs
0.887440 0.875975 0.854004 Cs
0.135809 0.875133 0.103291 Cs
0.386581 0.874458 0.354892 Cs
0.636814 0.875490 0.602892 Cs
0.886342 0.374965 0.854036 Cs
0.135911 0.374803 0.103652 Cs
0.385626 0.875233 0.854181 Cs
0.635977 0.875080 0.103603 Cs
0.386113 0.372792 0.852418 Cs
0.637859 0.374199 0.103399 Cs
0.102887 0.124773 0.385708 Cs
0.353329 0.122705 0.636458 Cs
0.102369 0.625153 0.385665 Cs
0.103427 0.124842 0.886055 Cs
0.354006 0.124844 0.136142 Cs
0.603358 0.124572 0.385458 Cs
0.853978 0.124832 0.636184 Cs
0.103431 0.625097 0.886252 Cs
0.352067 0.625286 0.135367 Cs
0.853556 0.625489 0.636061 Cs
0.603701 0.124941 0.886333 Cs
0.853863 0.124887 0.136112 Cs
0.606042 0.625796 0.886636 Cs
0.853847 0.625107 0.136257 Cs
0.896644 0.875058 0.114047 Cs
0.146106 0.875127 0.363607 Cs
0.896575 0.374868 0.114096 Cs
0.146636 0.374595 0.364252 Cs
0.896286 0.875002 0.613899 Cs
0.146490 0.875067 0.864101 Cs
0.396226 0.874834 0.114296 Cs
0.646475 0.874279 0.364520 Cs
0.897027 0.374797 0.613961 Cs
0.146945 0.374774 0.863416 Cs
0.393855 0.374391 0.113658 Cs
0.396820 0.874744 0.614147 Cs
0.646713 0.876123 0.864826 Cs
0.645723 0.374681 0.863813 Cs
0.113849 0.124912 0.146345 Cs
0.364153 0.123944 0.396158 Cs
0.114215 0.625028 0.146645 Cs
0.114078 0.124990 0.646375 Cs
0.364000 0.125039 0.896466 Cs
0.613952 0.124864 0.146597 Cs
0.864127 0.124808 0.396186 Cs
0.113948 0.625059 0.645871 Cs
0.363090 0.625689 0.896912 Cs
0.614791 0.625886 0.145851 Cs
0.864030 0.625156 0.396476 Cs
0.614069 0.124552 0.646036 Cs
0.864260 0.124953 0.896728 Cs
0.863757 0.625171 0.895488 Cs
0.750162 0.750266 0.249903 Pb
0.999977 0.750094 0.500039 Pb
0.750205 0.249588 0.249915 Pb
0.999963 0.249524 0.499930 Pb
0.751114 0.752852 0.751756 Pb
0.000038 0.749930 0.000117 Pb
0.249595 0.750717 0.249629 Pb
0.500403 0.744223 0.502892 Pb
0.750358 0.249829 0.750323 Pb
0.000048 0.250008 0.000025 Pb
0.249952 0.749882 0.749987 Pb
0.500021 0.750337 0.000121 Pb
0.249473 0.248928 0.750488 Pb
0.500073 0.249981 0.000308 Pb
0.000038 0.750136 0.249980 Pb
0.249541 0.750066 0.500179 Pb
0.000033 0.249944 0.249964 Pb
0.000365 0.750163 0.750171 Pb
0.249869 0.750361 -0.000003 Pb
0.500192 0.749111 0.250553 Pb
0.750425 0.750646 0.499847 Pb
0.999862 0.249914 0.750039 Pb
0.249750 0.249544 0.000035 Pb
0.750292 0.249193 0.499747 Pb
0.500011 0.751994 0.750904 Pb
0.750291 0.750389 0.000392 Pb
0.500494 0.249321 0.750100 Pb
0.750200 0.249729 0.000047 Pb
0.000005 1.000000 0.249983 Pb
0.249917 0.999094 0.499923 Pb
0.000079 0.499874 0.249949 Pb
0.000075 1.000003 0.749975 Pb
0.249947 0.000009 0.000057 Pb
0.500018 0.999461 0.250043 Pb
0.750210 0.000310 0.499864 Pb
0.000028 0.500143 0.750027 Pb
0.249496 0.499836 0.999740 Pb
0.750331 0.499360 0.500240 Pb
0.500036 0.000382 0.750137 Pb
0.750169 0.000179 0.000161 Pb
0.497568 0.502288 0.754682 Pb
0.750310 0.499887 0.000198 Pb
0.750068 0.999834 0.249982 Pb
0.000017 0.999818 0.499992 Pb
0.750304 0.500045 0.249813 Pb
0.999797 0.499873 0.499886 Pb
0.750222 0.000695 0.750212 Pb
0.000094 0.000084 0.000100 Pb
0.249964 0.000037 0.249967 Pb
0.500102 0.997200 0.500002 Pb
0.750340 0.499510 0.749967 Pb
0.999987 0.500104 0.000099 Pb
0.249823 0.999498 0.750050 Pb
0.499972 0.000094 0.000089 Pb
0.249755 0.500262 0.750085 Pb
0.500222 0.499563 0.002790 Pb
0.984421 0.125083 0.230808 Br
0.233515 0.123603 0.479506 Br
0.984656 0.624884 0.230927 Br
0.232039 0.624661 0.481192 Br
0.984557 0.125100 0.730580 Br
0.234227 0.124919 0.980182 Br
0.484707 0.125320 0.231890 Br
0.733678 0.125035 0.479702 Br
0.984281 0.624973 0.730386 Br
0.234283 0.624863 0.981012 Br
0.483909 0.624077 0.226847 Br
0.484653 0.125827 0.730082 Br
0.734306 0.125144 0.980365 Br
0.735084 0.624996 0.981031 Br
0.230171 0.875208 0.233768 Br
0.483400 0.867032 0.485991 Br
0.231029 0.374738 0.234466 Br
0.230682 0.874309 0.734278 Br
0.480826 0.874761 0.984579 Br
0.730110 0.874865 0.234464 Br
0.980465 0.874812 0.484356 Br
0.233658 0.374594 0.732793 Br
0.479590 0.375586 0.984067 Br
0.731739 0.374976 0.233764 Br
0.980917 0.374818 0.484362 Br
0.729977 0.876350 0.734686 Br
0.981159 0.874957 0.984710 Br
0.980746 0.375141 0.984532 Br
0.769430 0.124909 0.265672 Br
0.019482 0.124802 0.515905 Br
0.768855 0.624883 0.265966 Br
0.018725 0.624713 0.515778 Br
0.769998 0.125844 0.766001 Br
0.019355 0.125125 0.015676 Br
0.270025 0.124880 0.265759 Br
0.518681 0.120733 0.515000 Br
0.765795 0.625958 0.764051 Br
0.019702 0.624906 0.015976 Br
0.268865 0.124345 0.766090 Br
0.519194 0.125322 0.015897 Br
0.271151 0.624373 0.765036 Br
0.519887 0.624211 0.014656 Br
0.015510 0.875012 0.269248 Br
0.266519 0.874155 0.520279 Br
0.015878 0.375021 0.269604 Br
0.016372 0.874979 0.769302 Br
0.265919 0.874945 0.019398 Br
0.515485 0.874033 0.270233 Br
0.766145 0.875288 0.517804 Br
0.015761 0.375218 0.769233 Br
0.265061 0.374915 0.018629 Br
0.766476 0.374468 0.519295 Br
0.515605 0.875982 0.770868 Br
0.765714 0.875134 0.019748 Br
0.516037 0.377140 0.763339 Br
0.766423 0.375050 0.018931 Br
0.873870 0.982012 0.224566 Br
0.123926 0.981682 0.474573 Br
0.873788 0.482192 0.224560 Br
0.123274 0.482238 0.474257 Br
0.873868 0.982028 0.724520 Br
0.123960 0.982079 0.974532 Br
0.374036 0.981914 0.224678 Br
0.623772 0.981785 0.474432 Br
0.873477 0.482429 0.724258 Br
0.124151 0.481940 0.974140 Br
0.374797 0.481840 0.225568 Br
0.374067 0.981975 0.724561 Br
0.623820 0.982421 0.974893 Br
0.623462 0.481914 0.974773 Br
0.974572 0.017864 0.373954 Br
0.224543 0.017885 0.623875 Br
0.974278 0.517911 0.373987 Br
0.224760 0.517390 0.623762 Br
0.974626 0.017973 0.873877 Br
0.224644 0.018090 0.123944 Br
0.474145 0.015917 0.374180 Br
0.724681 0.018027 0.623876 Br
0.974511 0.518040 0.873799 Br
0.224734 0.517406 0.123600 Br
0.474578 0.018139 0.873848 Br
0.724527 0.018036 0.123909 Br
0.474653 0.516735 0.870349 Br
0.724376 0.517800 0.123912 Br
0.025574 0.767872 0.126126 Br
0.275267 0.768081 0.376122 Br
0.025463 0.267921 0.126124 Br
0.025436 0.767937 0.626149 Br
0.275572 0.767719 0.876008 Br
0.525152 0.767907 0.126832 Br
0.775495 0.767686 0.375867 Br
0.025439 0.267807 0.626107 Br
0.275325 0.267882 0.875977 Br
0.525424 0.268965 0.126375 Br
0.775726 0.267896 0.376138 Br
0.527566 0.768055 0.627296 Br
0.777442 0.768843 0.876626 Br
0.775385 0.268209 0.876015 Br
0.126218 0.231989 0.275519 Br
0.375917 0.229150 0.525434 Br
0.126041 0.732306 0.275629 Br
0.125900 0.232143 0.775624 Br
0.376173 0.232104 0.025492 Br
0.626097 0.232284 0.275587 Br
0.875885 0.231812 0.525555 Br
0.126364 0.731700 0.775404 Br
0.376248 0.732014 0.025346 Br
0.876465 0.732108 0.525476 Br
0.626123 0.232042 0.775605 Br
0.876040 0.232001 0.025490 Br
0.626395 0.736108 0.779377 Br
0.876130 0.731977 0.025612 Br
0.873766 0.767937 0.224546 Br
0.124405 0.768158 0.474581 Br
0.873928 0.267847 0.224559 Br
0.123777 0.266990 0.474362 Br
0.874088 0.768304 0.725125 Br
0.123998 0.767912 0.974428 Br
0.374058 0.767608 0.225677 Br
0.624152 0.764525 0.474932 Br
0.873765 0.268221 0.724474 Br
0.123952 0.268014 0.974359 Br
0.374097 0.268098 0.224760 Br
0.374257 0.767958 0.724550 Br
0.623955 0.767905 0.974522 Br
0.623830 0.268167 0.974621 Br
0.974447 0.232039 0.373955 Br
0.225568 0.232364 0.623763 Br
0.974519 0.732081 0.373974 Br
0.224736 0.731920 0.623894 Br
0.974473 0.232137 0.873857 Br
0.224614 0.231949 0.123797 Br
0.474156 0.232261 0.374155 Br
0.724329 0.232054 0.623856 Br
0.974648 0.731962 0.873907 Br
0.224438 0.732388 0.123827 Br
0.474869 0.232495 0.874058 Br
0.724461 0.231986 0.123872 Br
0.474212 0.731930 0.874205 Br
0.724732 0.732238 0.123741 Br
0.126194 0.017961 0.275454 Br
0.376279 0.016508 0.525387 Br
0.126306 0.517570 0.275681 Br
0.126166 0.017891 0.775413 Br
0.376154 0.017943 0.025448 Br
0.626026 0.017659 0.275475 Br
0.875970 0.018051 0.525450 Br
0.126630 0.517831 0.775209 Br
0.376588 0.518070 0.025140 Br
0.874793 0.517595 0.526012 Br
0.626069 0.018307 0.775453 Br
0.876088 0.017967 0.025506 Br
0.624498 0.517864 0.774237 Br
0.876026 0.518028 0.025361 Br
0.025496 0.982165 0.126112 Br
0.275677 0.981520 0.376165 Br
0.025505 0.482045 0.126127 Br
0.025433 0.982026 0.626116 Br
0.275404 0.982053 0.876065 Br
0.525390 0.982031 0.126167 Br
0.775447 0.982094 0.376099 Br
0.025350 0.482099 0.626095 Br
0.276911 0.481733 0.875651 Br
0.525478 0.481227 0.126246 Br
0.775138 0.482243 0.376425 Br
0.525631 0.981648 0.626185 Br
0.775604 0.982131 0.876072 Br
0.775075 0.482140 0.875827 Br
0.385174 0.372982 0.354482 Cs
0.638848 0.370418 0.602942 Cs
0.608019 0.625468 0.388798 Cs
0.355286 0.624854 0.635651 Cs
0.381662 0.366979 0.613871 Cs
0.649366 0.374055 0.363681 Cs
0.624278 0.632913 0.657871 Cs
0.357455 0.627839 0.393431 Cs
0.249884 0.249396 0.249962 Pb
0.499777 0.247691 0.500143 Pb
0.500125 0.250285 0.250033 Pb
0.249174 0.247581 0.499348 Pb
0.500515 0.500157 0.248570 Pb
0.248809 0.500209 0.499523 Pb
0.249624 0.499500 0.249826 Pb
0.497313 0.499982 0.492684 Pb
0.486481 0.625724 0.731466 Br
0.736035 0.624519 0.484137 Br
0.729534 0.375497 0.734267 Br
0.477141 0.372417 0.491601 Br
0.266607 0.624984 0.263344 Br
0.515769 0.376211 0.273057 Br
0.260714 0.374022 0.513956 Br
0.375000 0.481817 0.721157 Br
0.621958 0.479146 0.475465 Br
0.475486 0.527432 0.376283 Br
0.720314 0.515521 0.623976 Br
0.525053 0.267512 0.626106 Br
0.275599 0.266823 0.376016 Br
0.626054 0.731246 0.275672 Br
0.376319 0.729631 0.524742 Br
0.373963 0.264545 0.727192 Br
0.623469 0.268079 0.474796 Br
0.477329 0.725244 0.375911 Br
0.728200 0.738128 0.624453 Br
0.625680 0.518445 0.275532 Br
0.376063 0.514105 0.526348 Br
0.276548 0.483017 0.375978 Br
0.517527 0.613719 0.540098 Br
