Cs7 Pb8 Br24                            
   1.0000000000000000     
     8.4200180000000007    0.0000000000000000    8.0779809999999994
     0.0000000000000000   11.7638079999999992    0.0000000000000000
    -8.4200180000000007    0.0000000000000000    8.0779809999999994
   Cs   Pb   Br   Cs
     6     8    24     1
Direct
  0.2706200000000010  0.2486219999999975  0.1997000000000000
  0.7704499999999967  0.2472520000000031  0.7298649999999967
  0.2128259999999997  0.7587219999999988  0.7665140000000008
  0.2873120000000000  0.2416520000000020  0.7335410000000024
  0.7295829999999981  0.7525570000000030  0.7705020000000005
  0.2293670000000034  0.7513969999999972  0.3004499999999979
  0.9984710000000021  0.9968560000000011  0.0068240000000017
  0.5016439999999989  0.0032089999999982  0.4931610000000006
  0.5060599999999980  0.9978920000000002  0.0008410000000012
  0.9938369999999992  0.0022239999999982  0.4991559999999993
  0.5000950000000017  0.5013489999999976  0.9943760000000026
  0.9997649999999965  0.4989630000000034  0.5056429999999992
  0.0036720000000017  0.5009670000000028  0.0017039999999966
  0.4963639999999998  0.4992909999999995  0.4982789999999966
  0.4701519999999988  0.7485730000000004  0.9468239999999994
  0.9650680000000023  0.7501090000000019  0.4685920000000010
  0.9790970000000030  0.2496859999999970  0.9717169999999982
  0.4446930000000009  0.2509999999999977  0.4684689999999989
  0.0556449999999984  0.7492360000000033  0.0316159999999996
  0.5212330000000023  0.7505439999999979  0.5282860000000014
  0.5344139999999982  0.2500610000000023  0.0309799999999996
  0.0299669999999992  0.2516559999999970  0.5531810000000021
  0.2498140000000006  0.4628030000000010  0.9484759999999994
  0.7470610000000022  0.4632239999999967  0.4909139999999965
  0.4433799999999977  0.5291840000000008  0.2459289999999967
  0.9668429999999972  0.5481359999999995  0.7507670000000033
  0.5448939999999993  0.0336309999999997  0.7503320000000002
  0.0583889999999982  0.0297300000000007  0.2541760000000011
  0.7548880000000011  0.9439869999999999  0.0372759999999985
  0.2479159999999965  0.9698720000000023  0.5471569999999986
  0.2520910000000001  0.0303309999999968  0.9528469999999984
  0.7450589999999977  0.0558449999999979  0.4626719999999978
  0.4413899999999984  0.9705829999999978  0.2458370000000016
  0.9547999999999988  0.9662530000000018  0.7497389999999982
  0.7530720000000031  0.5358540000000005  0.0088599999999985
  0.2502720000000025  0.5374490000000023  0.5516720000000035
  0.5331979999999987  0.4524469999999994  0.7492639999999966
  0.0566280000000035  0.4707640000000026  0.2540580000000006
  0.7498720000000034  0.4986620000000030  0.2498500000000021

  0.00000000E+00  0.00000000E+00  0.00000000E+00
  0.00000000E+00  0.00000000E+00  0.00000000E+00
  0.00000000E+00  0.00000000E+00  0.00000000E+00
  0.00000000E+00  0.00000000E+00  0.00000000E+00
  0.00000000E+00  0.00000000E+00  0.00000000E+00
  0.00000000E+00  0.00000000E+00  0.00000000E+00
  0.00000000E+00  0.00000000E+00  0.00000000E+00
  0.00000000E+00  0.00000000E+00  0.00000000E+00
  0.00000000E+00  0.00000000E+00  0.00000000E+00
  0.00000000E+00  0.00000000E+00  0.00000000E+00
  0.00000000E+00  0.00000000E+00  0.00000000E+00
  0.00000000E+00  0.00000000E+00  0.00000000E+00
  0.00000000E+00  0.00000000E+00  0.00000000E+00
  0.00000000E+00  0.00000000E+00  0.00000000E+00
  0.00000000E+00  0.00000000E+00  0.00000000E+00
  0.00000000E+00  0.00000000E+00  0.00000000E+00
  0.00000000E+00  0.00000000E+00  0.00000000E+00
  0.00000000E+00  0.00000000E+00  0.00000000E+00
  0.00000000E+00  0.00000000E+00  0.00000000E+00
  0.00000000E+00  0.00000000E+00  0.00000000E+00
  0.00000000E+00  0.00000000E+00  0.00000000E+00
  0.00000000E+00  0.00000000E+00  0.00000000E+00
  0.00000000E+00  0.00000000E+00  0.00000000E+00
  0.00000000E+00  0.00000000E+00  0.00000000E+00
  0.00000000E+00  0.00000000E+00  0.00000000E+00
  0.00000000E+00  0.00000000E+00  0.00000000E+00
  0.00000000E+00  0.00000000E+00  0.00000000E+00
  0.00000000E+00  0.00000000E+00  0.00000000E+00
  0.00000000E+00  0.00000000E+00  0.00000000E+00
  0.00000000E+00  0.00000000E+00  0.00000000E+00
  0.00000000E+00  0.00000000E+00  0.00000000E+00
  0.00000000E+00  0.00000000E+00  0.00000000E+00
  0.00000000E+00  0.00000000E+00  0.00000000E+00
  0.00000000E+00  0.00000000E+00  0.00000000E+00
  0.00000000E+00  0.00000000E+00  0.00000000E+00
  0.00000000E+00  0.00000000E+00  0.00000000E+00
  0.00000000E+00  0.00000000E+00  0.00000000E+00
  0.00000000E+00  0.00000000E+00  0.00000000E+00
  0.00000000E+00  0.00000000E+00  0.00000000E+00
