Cs4 Pb4 Br12                            
   1.0000000000000000     
     8.4132038871876027    0.0000000000000000    0.0000000000000002
     0.0000000000000000   11.7043863456167099    0.0000000000000000
    -0.0000000000000001    0.0000000000000000    7.7965103058412852
   Cs   Pb   Br
     4     4    12
Direct
  0.0760709614270070  0.2500000000000000  0.4717252802029606
  0.4239290385729930  0.7500000000000000  0.9717252802029606
  0.5760709614270070  0.2500000000000000  0.0282747197970394
  0.9239290385729930  0.7500000000000000  0.5282747197970394
  0.0000000000000000  0.0000000000000000  0.0000000000000000
  0.5000000000000000  0.0000000000000000  0.5000000000000000
  0.5000000000000000  0.5000000000000000  0.5000000000000000
  0.0000000000000000  0.5000000000000000  0.0000000000000000
  0.5010093996629124  0.7500000000000000  0.4337526802932743
  0.9989906003370876  0.2500000000000000  0.9337526802932814
  0.0010093996629124  0.7500000000000000  0.0662473197067257
  0.4989906003370876  0.2500000000000000  0.5662473197067186
  0.3069496893467445  0.4654247601020529  0.1844228519299023
  0.1930503106532555  0.5345752398979471  0.6844228519299023
  0.8069496893467445  0.0345752398979471  0.3155771480700977
  0.6930503106532555  0.9654247601020529  0.8155771480700977
  0.3069496893467445  0.0345752398979471  0.1844228519299023
  0.1930503106532555  0.9654247601020529  0.6844228519299023
  0.6930503106532555  0.5345752398979471  0.8155771480700977
  0.8069496893467445  0.4654247601020529  0.3155771480700977

  0.00000000E+00  0.00000000E+00  0.00000000E+00
  0.00000000E+00  0.00000000E+00  0.00000000E+00
  0.00000000E+00  0.00000000E+00  0.00000000E+00
  0.00000000E+00  0.00000000E+00  0.00000000E+00
  0.00000000E+00  0.00000000E+00  0.00000000E+00
  0.00000000E+00  0.00000000E+00  0.00000000E+00
  0.00000000E+00  0.00000000E+00  0.00000000E+00
  0.00000000E+00  0.00000000E+00  0.00000000E+00
  0.00000000E+00  0.00000000E+00  0.00000000E+00
  0.00000000E+00  0.00000000E+00  0.00000000E+00
  0.00000000E+00  0.00000000E+00  0.00000000E+00
  0.00000000E+00  0.00000000E+00  0.00000000E+00
  0.00000000E+00  0.00000000E+00  0.00000000E+00
  0.00000000E+00  0.00000000E+00  0.00000000E+00
  0.00000000E+00  0.00000000E+00  0.00000000E+00
  0.00000000E+00  0.00000000E+00  0.00000000E+00
  0.00000000E+00  0.00000000E+00  0.00000000E+00
  0.00000000E+00  0.00000000E+00  0.00000000E+00
  0.00000000E+00  0.00000000E+00  0.00000000E+00
  0.00000000E+00  0.00000000E+00  0.00000000E+00
