Cs4 Pb4 Br12                            
   1.0000000000000000     
     8.4132038871876027    0.0000000000000000    0.0000000000000002
     0.0000000000000000   11.7043863456167099    0.0000000000000000
    -0.0000000000000001    0.0000000000000000    7.7965103058412852
   Cs   Pb   Br
     4     4    12
Direct
  0.0760709614270078  0.2500000000000000  0.4717252802029637
  0.4239290385729923  0.7500000000000000  0.9717252802029638
  0.5760709614270079  0.2500000000000000  0.0282747197970362
  0.9239290385729921  0.7500000000000000  0.5282747197970362
 -0.0000000000000000 -0.0000000000000000  0.0000000000000000
  0.5000000000000000 -0.0000000000000000  0.5000000000000000
  0.5000000000000000  0.5000000000000000  0.5000000000000000
 -0.0000000000000000  0.5000000000000000  0.0000000000000000
  0.5010093996629146  0.7500000000000000  0.4337526802932746
  0.9989906003370854  0.2500000000000000  0.9337526802932820
  0.0010093996629146  0.7500000000000000  0.0662473197067253
  0.4989906003370854  0.2500000000000000  0.5662473197067180
  0.3069496893467414  0.4654247601020531  0.1844228519299046
  0.1930503106532586  0.5345752398979471  0.6844228519299044
  0.8069496893467413  0.0345752398979469  0.3155771480700953
  0.6930503106532587  0.9654247601020529  0.8155771480700956
  0.3069496893467414  0.0345752398979469  0.1844228519299046
  0.1930503106532586  0.9654247601020529  0.6844228519299044
  0.6930503106532587  0.5345752398979471  0.8155771480700956
  0.8069496893467413  0.4654247601020531  0.3155771480700953

  0.00000000E+00  0.00000000E+00  0.00000000E+00
  0.00000000E+00  0.00000000E+00  0.00000000E+00
  0.00000000E+00  0.00000000E+00  0.00000000E+00
  0.00000000E+00  0.00000000E+00  0.00000000E+00
  0.00000000E+00  0.00000000E+00  0.00000000E+00
  0.00000000E+00  0.00000000E+00  0.00000000E+00
  0.00000000E+00  0.00000000E+00  0.00000000E+00
  0.00000000E+00  0.00000000E+00  0.00000000E+00
  0.00000000E+00  0.00000000E+00  0.00000000E+00
  0.00000000E+00  0.00000000E+00  0.00000000E+00
  0.00000000E+00  0.00000000E+00  0.00000000E+00
  0.00000000E+00  0.00000000E+00  0.00000000E+00
  0.00000000E+00  0.00000000E+00  0.00000000E+00
  0.00000000E+00  0.00000000E+00  0.00000000E+00
  0.00000000E+00  0.00000000E+00  0.00000000E+00
  0.00000000E+00  0.00000000E+00  0.00000000E+00
  0.00000000E+00  0.00000000E+00  0.00000000E+00
  0.00000000E+00  0.00000000E+00  0.00000000E+00
  0.00000000E+00  0.00000000E+00  0.00000000E+00
  0.00000000E+00  0.00000000E+00  0.00000000E+00
