Cs4 Pb4 Br12                            
   1.0000000000000000     
     5.8802466829845672    5.8802466829845672    5.8802466829845672
     5.8802466829845672   -5.8802466829845672   -5.8802466829845672
    -5.8802466829845672    5.8802466829845672   -5.8802466829845672
   Cs   Pb   Br
     4     4    12
Direct
  0.5000000000000000  0.0000000000000000  0.0000000000000000
  0.5000000000000000  0.5000000000000000  0.5000000000000000
  0.0000000000000000  0.0000000000000000  0.5000000000000000
  0.0000000000000000  0.5000000000000000  0.0000000000000000
  0.0000000000000000  0.0000000000000000  0.0000000000000000
  0.0000000000000000  0.5000000000000000  0.5000000000000000
  0.5000000000000000  0.0000000000000000  0.5000000000000000
  0.5000000000000000  0.5000000000000000  0.0000000000000000
  0.2238294201457762  0.9426619472490856  0.2188325271033165
  0.2238294201457762  0.5049968930424598  0.7811674728966835
  0.7761705798542238  0.0573380527509144  0.7811674728966835
  0.7761705798542238  0.4950031069575402  0.2188325271033165
  0.0049968930424598  0.7811674728966835  0.7238294201457762
  0.9950031069575402  0.2188325271033165  0.2761705798542238
  0.5573380527509144  0.7811674728966835  0.2761705798542238
  0.4426619472490856  0.2188325271033165  0.7238294201457762
  0.2811674728966835  0.2761705798542238  0.0573380527509144
  0.2811674728966835  0.7238294201457762  0.5049968930424598
  0.7188325271033165  0.2761705798542238  0.4950031069575402
  0.7188325271033165  0.7238294201457762  0.9426619472490856

  0.00000000E+00  0.00000000E+00  0.00000000E+00
  0.00000000E+00  0.00000000E+00  0.00000000E+00
  0.00000000E+00  0.00000000E+00  0.00000000E+00
  0.00000000E+00  0.00000000E+00  0.00000000E+00
  0.00000000E+00  0.00000000E+00  0.00000000E+00
  0.00000000E+00  0.00000000E+00  0.00000000E+00
  0.00000000E+00  0.00000000E+00  0.00000000E+00
  0.00000000E+00  0.00000000E+00  0.00000000E+00
  0.00000000E+00  0.00000000E+00  0.00000000E+00
  0.00000000E+00  0.00000000E+00  0.00000000E+00
  0.00000000E+00  0.00000000E+00  0.00000000E+00
  0.00000000E+00  0.00000000E+00  0.00000000E+00
  0.00000000E+00  0.00000000E+00  0.00000000E+00
  0.00000000E+00  0.00000000E+00  0.00000000E+00
  0.00000000E+00  0.00000000E+00  0.00000000E+00
  0.00000000E+00  0.00000000E+00  0.00000000E+00
  0.00000000E+00  0.00000000E+00  0.00000000E+00
  0.00000000E+00  0.00000000E+00  0.00000000E+00
  0.00000000E+00  0.00000000E+00  0.00000000E+00
  0.00000000E+00  0.00000000E+00  0.00000000E+00
