Cs4 Pb4 Br12                            
   1.0000000000000000     
     5.8802466829845672    5.8802466829845672    5.8802466829845672
     5.8802466829845672   -5.8802466829845672   -5.8802466829845672
    -5.8802466829845672    5.8802466829845672   -5.8802466829845672
   Cs   Pb   Br
     4     4    12
Direct
  0.5000000000000000 -0.0000000000000000 -0.0000000000000000
  0.5000000000000000  0.5000000000000000  0.5000000000000000
 -0.0000000000000000 -0.0000000000000000  0.5000000000000000
 -0.0000000000000000  0.5000000000000000 -0.0000000000000000
 -0.0000000000000000 -0.0000000000000000 -0.0000000000000000
 -0.0000000000000000  0.5000000000000000  0.5000000000000000
  0.5000000000000000 -0.0000000000000000  0.5000000000000000
  0.5000000000000000  0.5000000000000000 -0.0000000000000000
  0.2238294201457733  0.9426619472490876  0.2188325271033142
  0.2238294201457733  0.5049968930424591  0.7811674728966859
  0.7761705798542265  0.0573380527509124  0.7811674728966859
  0.7761705798542267  0.4950031069575410  0.2188325271033142
  0.0049968930424590  0.7811674728966859  0.7238294201457735
 -0.0049968930424590  0.2188325271033142  0.2761705798542268
  0.5573380527509124  0.7811674728966859  0.2761705798542268
  0.4426619472490876  0.2188325271033142  0.7238294201457733
  0.2811674728966857  0.2761705798542268  0.0573380527509124
  0.2811674728966857  0.7238294201457735  0.5049968930424591
  0.7188325271033141  0.2761705798542268  0.4950031069575410
  0.7188325271033141  0.7238294201457733  0.9426619472490876

  0.00000000E+00  0.00000000E+00  0.00000000E+00
  0.00000000E+00  0.00000000E+00  0.00000000E+00
  0.00000000E+00  0.00000000E+00  0.00000000E+00
  0.00000000E+00  0.00000000E+00  0.00000000E+00
  0.00000000E+00  0.00000000E+00  0.00000000E+00
  0.00000000E+00  0.00000000E+00  0.00000000E+00
  0.00000000E+00  0.00000000E+00  0.00000000E+00
  0.00000000E+00  0.00000000E+00  0.00000000E+00
  0.00000000E+00  0.00000000E+00  0.00000000E+00
  0.00000000E+00  0.00000000E+00  0.00000000E+00
  0.00000000E+00  0.00000000E+00  0.00000000E+00
  0.00000000E+00  0.00000000E+00  0.00000000E+00
  0.00000000E+00  0.00000000E+00  0.00000000E+00
  0.00000000E+00  0.00000000E+00  0.00000000E+00
  0.00000000E+00  0.00000000E+00  0.00000000E+00
  0.00000000E+00  0.00000000E+00  0.00000000E+00
  0.00000000E+00  0.00000000E+00  0.00000000E+00
  0.00000000E+00  0.00000000E+00  0.00000000E+00
  0.00000000E+00  0.00000000E+00  0.00000000E+00
  0.00000000E+00  0.00000000E+00  0.00000000E+00
