Cs4 Pb4 Br12                            
   1.0000000000000000     
     8.5042177738574694    0.0000000000000000    0.0000000000000000
     0.0000000000000000   11.8214458624860086    0.0000000000000000
     0.0000000000000000    0.0000000000000000    7.9682125688721559
   Cs   Pb   Br
     4     4    12
Direct
  0.0677423222130855  0.2500000000000000  0.4765609592957318
  0.4322576777869287  0.7500000000000000  0.9765609592957318
  0.5677423222130784  0.2500000000000000  0.0234390407042682
  0.9322576777869216  0.7500000000000000  0.5234390407042682
  0.0000000000000000  0.0000000000000000  0.0000000000000000
  0.5000000000000000  0.0000000000000000  0.5000000000000000
  0.5000000000000000  0.5000000000000000  0.5000000000000000
  0.0000000000000000  0.5000000000000000  0.0000000000000000
  0.5066100383465511  0.7500000000000000  0.4357718519394425
  0.9933899616534489  0.2500000000000000  0.9357718519394425
  0.0066100383465511  0.7500000000000000  0.0642281480605575
  0.4933899616534489  0.2500000000000000  0.5642281480605575
  0.3007546601234310  0.4661690597263899  0.1928262014764854
  0.1992453398765761  0.5338309402736101  0.6928262014764854
  0.8007546601234310  0.0338309402736101  0.3071737985235146
  0.6992453398765690  0.9661690597263899  0.8071737985235146
  0.3007546601234310  0.0338309402736101  0.1928262014764854
  0.1992453398765761  0.9661690597263899  0.6928262014764854
  0.6992453398765690  0.5338309402736101  0.8071737985235146
  0.8007546601234310  0.4661690597263899  0.3071737985235146

  0.00000000E+00  0.00000000E+00  0.00000000E+00
  0.00000000E+00  0.00000000E+00  0.00000000E+00
  0.00000000E+00  0.00000000E+00  0.00000000E+00
  0.00000000E+00  0.00000000E+00  0.00000000E+00
  0.00000000E+00  0.00000000E+00  0.00000000E+00
  0.00000000E+00  0.00000000E+00  0.00000000E+00
  0.00000000E+00  0.00000000E+00  0.00000000E+00
  0.00000000E+00  0.00000000E+00  0.00000000E+00
  0.00000000E+00  0.00000000E+00  0.00000000E+00
  0.00000000E+00  0.00000000E+00  0.00000000E+00
  0.00000000E+00  0.00000000E+00  0.00000000E+00
  0.00000000E+00  0.00000000E+00  0.00000000E+00
  0.00000000E+00  0.00000000E+00  0.00000000E+00
  0.00000000E+00  0.00000000E+00  0.00000000E+00
  0.00000000E+00  0.00000000E+00  0.00000000E+00
  0.00000000E+00  0.00000000E+00  0.00000000E+00
  0.00000000E+00  0.00000000E+00  0.00000000E+00
  0.00000000E+00  0.00000000E+00  0.00000000E+00
  0.00000000E+00  0.00000000E+00  0.00000000E+00
  0.00000000E+00  0.00000000E+00  0.00000000E+00
