Cs4 Pb4 Br12                            
   1.0000000000000000     
     8.5042177738574694    0.0000000000000000    0.0000000000000000
     0.0000000000000000   11.8214458624860086    0.0000000000000000
     0.0000000000000000    0.0000000000000000    7.9682125688721559
   Cs   Pb   Br
     4     4    12
Direct
  0.0677423222130820  0.2500000000000000  0.4765609592957287
  0.4322576777869253  0.7500000000000000  0.9765609592957286
  0.5677423222130751  0.2500000000000000  0.0234390407042713
  0.9322576777869249  0.7500000000000000  0.5234390407042714
 -0.0000000000000000  0.0000000000000000 -0.0000000000000000
  0.5000000000000000  0.0000000000000000  0.5000000000000000
  0.5000000000000000  0.5000000000000000  0.5000000000000000
 -0.0000000000000000  0.5000000000000000 -0.0000000000000000
  0.5066100383465536  0.7500000000000000  0.4357718519394401
  0.9933899616534464  0.2500000000000000  0.9357718519394399
  0.0066100383465537  0.7500000000000000  0.0642281480605599
  0.4933899616534462  0.2500000000000000  0.5642281480605601
  0.3007546601234343  0.4661690597263894  0.1928262014764832
  0.1992453398765727  0.5338309402736102  0.6928262014764832
  0.8007546601234274  0.0338309402736107  0.3071737985235168
  0.6992453398765726  0.9661690597263898  0.8071737985235168
  0.3007546601234343  0.0338309402736107  0.1928262014764832
  0.1992453398765727  0.9661690597263898  0.6928262014764832
  0.6992453398765726  0.5338309402736102  0.8071737985235168
  0.8007546601234274  0.4661690597263894  0.3071737985235168

  0.00000000E+00  0.00000000E+00  0.00000000E+00
  0.00000000E+00  0.00000000E+00  0.00000000E+00
  0.00000000E+00  0.00000000E+00  0.00000000E+00
  0.00000000E+00  0.00000000E+00  0.00000000E+00
  0.00000000E+00  0.00000000E+00  0.00000000E+00
  0.00000000E+00  0.00000000E+00  0.00000000E+00
  0.00000000E+00  0.00000000E+00  0.00000000E+00
  0.00000000E+00  0.00000000E+00  0.00000000E+00
  0.00000000E+00  0.00000000E+00  0.00000000E+00
  0.00000000E+00  0.00000000E+00  0.00000000E+00
  0.00000000E+00  0.00000000E+00  0.00000000E+00
  0.00000000E+00  0.00000000E+00  0.00000000E+00
  0.00000000E+00  0.00000000E+00  0.00000000E+00
  0.00000000E+00  0.00000000E+00  0.00000000E+00
  0.00000000E+00  0.00000000E+00  0.00000000E+00
  0.00000000E+00  0.00000000E+00  0.00000000E+00
  0.00000000E+00  0.00000000E+00  0.00000000E+00
  0.00000000E+00  0.00000000E+00  0.00000000E+00
  0.00000000E+00  0.00000000E+00  0.00000000E+00
  0.00000000E+00  0.00000000E+00  0.00000000E+00
