Cs4 Pb4 Br12                            
   1.0000000000000000     
     5.8350960572219277    5.8932925106810696    5.8932925106810696
     5.8350960572219277   -5.8932925106810696   -5.8932925106810696
    -5.8350960572219277    5.8932925106810696   -5.8932925106810696
   Cs   Pb   Br
     4     4    12
Direct
  0.5000000000000000  0.0000000000000000  0.0000000000000000
  0.5000000000000000  0.5000000000000000  0.5000000000000000
  0.0000000000000000  0.0000000000000000  0.5000000000000000
  0.0000000000000000  0.5000000000000000  0.0000000000000000
  0.0000000000000000  0.0000000000000000  0.0000000000000000
  0.0000000000000000  0.5000000000000000  0.5000000000000000
  0.5000000000000000  0.0000000000000000  0.5000000000000000
  0.5000000000000000  0.5000000000000000  0.0000000000000000
  0.2091042862160890  0.9563483586736012  0.2472440724575122
  0.2091042862160890  0.4618602137585768  0.7527559275424878
  0.7908957137839110  0.0436516413263988  0.7527559275424878
  0.7908957137839110  0.5381397862414232  0.2472440724575122
  0.0436516413263988  0.7908957137839110  0.7527559275424878
  0.9563483586736012  0.2091042862160890  0.2472440724575122
  0.5381397862414232  0.7908957137839110  0.2472440724575122
  0.4618602137585768  0.2091042862160890  0.7527559275424878
  0.2852087866535271  0.2852087866535271  0.0704175733070542
  0.2852087866535271  0.7147912133464729  0.5000000000000000
  0.7147912133464729  0.2852087866535271  0.5000000000000000
  0.7147912133464729  0.7147912133464729  0.9295824266929458

  0.00000000E+00  0.00000000E+00  0.00000000E+00
  0.00000000E+00  0.00000000E+00  0.00000000E+00
  0.00000000E+00  0.00000000E+00  0.00000000E+00
  0.00000000E+00  0.00000000E+00  0.00000000E+00
  0.00000000E+00  0.00000000E+00  0.00000000E+00
  0.00000000E+00  0.00000000E+00  0.00000000E+00
  0.00000000E+00  0.00000000E+00  0.00000000E+00
  0.00000000E+00  0.00000000E+00  0.00000000E+00
  0.00000000E+00  0.00000000E+00  0.00000000E+00
  0.00000000E+00  0.00000000E+00  0.00000000E+00
  0.00000000E+00  0.00000000E+00  0.00000000E+00
  0.00000000E+00  0.00000000E+00  0.00000000E+00
  0.00000000E+00  0.00000000E+00  0.00000000E+00
  0.00000000E+00  0.00000000E+00  0.00000000E+00
  0.00000000E+00  0.00000000E+00  0.00000000E+00
  0.00000000E+00  0.00000000E+00  0.00000000E+00
  0.00000000E+00  0.00000000E+00  0.00000000E+00
  0.00000000E+00  0.00000000E+00  0.00000000E+00
  0.00000000E+00  0.00000000E+00  0.00000000E+00
  0.00000000E+00  0.00000000E+00  0.00000000E+00
