Cs4 Pb4 Br12                            
   1.0000000000000000     
     5.8350960572219277    5.8932925106810696    5.8932925106810696
     5.8350960572219277   -5.8932925106810696   -5.8932925106810696
    -5.8350960572219277    5.8932925106810696   -5.8932925106810696
   Cs   Pb   Br
     4     4    12
Direct
  0.5000000000000000  0.0000000000000000 -0.0000000000000000
  0.5000000000000000  0.5000000000000000  0.5000000000000000
 -0.0000000000000000  0.0000000000000000  0.5000000000000000
 -0.0000000000000000  0.5000000000000000 -0.0000000000000000
 -0.0000000000000000  0.0000000000000000 -0.0000000000000000
 -0.0000000000000000  0.5000000000000000  0.5000000000000000
  0.5000000000000000  0.0000000000000000  0.5000000000000000
  0.5000000000000000  0.5000000000000000 -0.0000000000000000
  0.2091042862160876  0.9563483586736007  0.2472440724575133
  0.2091042862160876  0.4618602137585744  0.7527559275424869
  0.7908957137839125  0.0436516413263991  0.7527559275424869
  0.7908957137839125  0.5381397862414256  0.2472440724575133
  0.0436516413263991  0.7908957137839125  0.7527559275424869
  0.9563483586736007  0.2091042862160876  0.2472440724575133
  0.5381397862414256  0.7908957137839125  0.2472440724575133
  0.4618602137585744  0.2091042862160876  0.7527559275424869
  0.2852087866535266  0.2852087866535266  0.0704175733070534
  0.2852087866535267  0.7147912133464731  0.5000000000000000
  0.7147912133464730  0.2852087866535267  0.5000000000000000
  0.7147912133464731  0.7147912133464730  0.9295824266929468

  0.00000000E+00  0.00000000E+00  0.00000000E+00
  0.00000000E+00  0.00000000E+00  0.00000000E+00
  0.00000000E+00  0.00000000E+00  0.00000000E+00
  0.00000000E+00  0.00000000E+00  0.00000000E+00
  0.00000000E+00  0.00000000E+00  0.00000000E+00
  0.00000000E+00  0.00000000E+00  0.00000000E+00
  0.00000000E+00  0.00000000E+00  0.00000000E+00
  0.00000000E+00  0.00000000E+00  0.00000000E+00
  0.00000000E+00  0.00000000E+00  0.00000000E+00
  0.00000000E+00  0.00000000E+00  0.00000000E+00
  0.00000000E+00  0.00000000E+00  0.00000000E+00
  0.00000000E+00  0.00000000E+00  0.00000000E+00
  0.00000000E+00  0.00000000E+00  0.00000000E+00
  0.00000000E+00  0.00000000E+00  0.00000000E+00
  0.00000000E+00  0.00000000E+00  0.00000000E+00
  0.00000000E+00  0.00000000E+00  0.00000000E+00
  0.00000000E+00  0.00000000E+00  0.00000000E+00
  0.00000000E+00  0.00000000E+00  0.00000000E+00
  0.00000000E+00  0.00000000E+00  0.00000000E+00
  0.00000000E+00  0.00000000E+00  0.00000000E+00
