Cs64 Pb64 Br191
1.0
16.840035 0.000000 16.155961
0.000000 23.527616 0.000000
-16.840035 0.000000 16.155961
Cs Pb Br Cs Pb Br
56 56 168 8 8 23
direct
0.885896 0.875070 0.353499 Cs
0.135647 0.875020 0.603718 Cs
0.885387 0.375639 0.353025 Cs
0.134765 0.375090 0.605880 Cs
0.886351 0.875177 0.853872 Cs
0.135926 0.875128 0.103539 Cs
0.385738 0.875536 0.353132 Cs
0.636394 0.875389 0.603522 Cs
0.885923 0.374636 0.853471 Cs
0.136134 0.374857 0.103978 Cs
0.385927 0.874961 0.853608 Cs
0.636033 0.875079 0.103825 Cs
0.386583 0.373973 0.850212 Cs
0.638179 0.374260 0.103224 Cs
0.102684 0.124838 0.385738 Cs
0.353916 0.124513 0.636360 Cs
0.102051 0.625603 0.386269 Cs
0.103302 0.124755 0.886185 Cs
0.353350 0.124846 0.135877 Cs
0.603386 0.124827 0.385724 Cs
0.855749 0.123863 0.636251 Cs
0.103377 0.625080 0.885794 Cs
0.353318 0.625380 0.135916 Cs
0.859932 0.627733 0.638386 Cs
0.603863 0.125544 0.885295 Cs
0.853913 0.124813 0.136253 Cs
0.607514 0.624993 0.885705 Cs
0.853382 0.625229 0.136614 Cs
0.896579 0.875161 0.114087 Cs
0.146327 0.875141 0.363850 Cs
0.896545 0.374953 0.114018 Cs
0.146944 0.374964 0.364370 Cs
0.895944 0.875022 0.613677 Cs
0.146628 0.875135 0.864272 Cs
0.396344 0.875370 0.113507 Cs
0.646631 0.875540 0.363842 Cs
0.895429 0.374846 0.614199 Cs
0.147638 0.374849 0.863862 Cs
0.395486 0.374513 0.112958 Cs
0.396278 0.875196 0.614147 Cs
0.646388 0.875009 0.864210 Cs
0.647146 0.374883 0.863364 Cs
0.113742 0.124938 0.146348 Cs
0.363590 0.124663 0.396275 Cs
0.113813 0.625107 0.146122 Cs
0.114232 0.125030 0.646089 Cs
0.364075 0.124875 0.896451 Cs
0.613967 0.124837 0.146031 Cs
0.864240 0.124869 0.396383 Cs
0.112596 0.625614 0.646497 Cs
0.363538 0.624999 0.897693 Cs
0.614432 0.626116 0.145592 Cs
0.860953 0.625274 0.396372 Cs
0.613031 0.122540 0.645987 Cs
0.864634 0.124609 0.898768 Cs
0.865317 0.625348 0.899570 Cs
0.750487 0.750719 0.249740 Pb
0.999752 0.750098 0.499665 Pb
0.750259 0.249700 0.249909 Pb
0.999815 0.249758 0.499880 Pb
0.750433 0.750335 0.750584 Pb
0.000071 0.750249 0.000106 Pb
0.249706 0.750373 0.249879 Pb
0.499312 0.751397 0.500039 Pb
0.753323 0.247707 0.750784 Pb
0.000061 0.250134 -0.000005 Pb
0.249760 0.750374 0.750263 Pb
0.499970 0.749853 0.999588 Pb
0.249520 0.248962 0.750669 Pb
0.500065 0.250092 0.000212 Pb
0.000079 0.750100 0.250030 Pb
0.249773 0.750644 0.499865 Pb
0.000064 0.250216 0.250047 Pb
0.000239 0.750731 0.750429 Pb
0.249822 0.750171 0.000036 Pb
0.499346 0.751469 0.249232 Pb
0.749900 0.749783 0.499787 Pb
0.000428 0.249650 0.750285 Pb
0.249845 0.249717 1.000034 Pb
0.750139 0.249734 0.500347 Pb
0.500239 0.749529 0.749750 Pb
0.750190 0.750488 0.000202 Pb
0.500037 0.248806 0.750592 Pb
0.750182 0.249466 0.000115 Pb
0.000010 0.000027 0.249983 Pb
0.249876 0.999786 0.499962 Pb
0.000063 0.500031 0.249913 Pb
0.000124 0.999856 0.750139 Pb
0.249944 0.000030 0.999995 Pb
0.499899 0.000456 0.249831 Pb
0.749963 0.000263 0.499866 Pb
0.000632 0.499474 0.750713 Pb
0.249716 0.499885 0.999939 Pb
0.747324 0.500121 0.504997 Pb
0.500043 0.999294 0.750231 Pb
0.749977 0.999897 1.000068 Pb
0.499819 0.502185 0.750374 Pb
0.750479 0.499935 0.001230 Pb
0.750102 0.000284 0.249964 Pb
1.000009 0.999739 0.499950 Pb
0.749966 0.499769 0.250795 Pb
0.998360 0.499659 0.499162 Pb
0.750249 0.999456 0.750179 Pb
0.000036 0.000017 0.000063 Pb
0.249878 0.000143 0.249933 Pb
0.499831 0.000361 0.499837 Pb
0.753443 0.502246 0.752597 Pb
0.000065 0.499816 0.000035 Pb
0.249860 0.999673 0.750045 Pb
0.500045 0.999931 0.999952 Pb
0.250151 0.500397 0.750302 Pb
0.500320 0.499512 1.000187 Pb
0.984451 0.125256 0.231094 Br
0.232981 0.124521 0.479744 Br
0.984511 0.624950 0.230549 Br
0.234728 0.625110 0.479662 Br
0.985391 0.124860 0.730951 Br
0.234270 0.125024 0.980249 Br
0.484278 0.125880 0.230111 Br
0.733900 0.125571 0.479205 Br
0.986699 0.624955 0.734241 Br
0.234001 0.624858 0.980814 Br
0.485019 0.625439 0.230708 Br
0.484596 0.124484 0.732027 Br
0.733540 0.124887 0.980843 Br
0.734865 0.624826 0.982710 Br
0.230430 0.875216 0.234260 Br
0.479607 0.876262 0.483960 Br
0.231488 0.375455 0.235049 Br
0.230407 0.874671 0.734125 Br
0.480787 0.874572 0.983686 Br
0.731252 0.875397 0.234212 Br
0.980262 0.874635 0.484183 Br
0.234112 0.374852 0.733413 Br
0.479044 0.375486 0.982388 Br
0.730214 0.374965 0.234409 Br
0.978887 0.375036 0.484069 Br
0.730200 0.874827 0.734502 Br
0.980757 0.875072 0.984565 Br
0.980303 0.375084 0.984343 Br
0.769735 0.125381 0.266093 Br
0.018627 0.124953 0.515867 Br
0.767482 0.624991 0.266010 Br
0.016779 0.624278 0.516760 Br
0.772201 0.123977 0.767440 Br
0.018951 0.125149 0.015734 Br
0.269592 0.125237 0.265626 Br
0.519239 0.126379 0.514906 Br
0.773362 0.626008 0.768838 Br
0.019008 0.624944 0.015324 Br
0.269296 0.124566 0.765872 Br
0.519554 0.125284 0.014991 Br
0.269128 0.624861 0.767682 Br
0.520442 0.624201 0.014102 Br
0.015610 0.874996 0.269630 Br
0.265589 0.874862 0.519914 Br
0.015951 0.375283 0.270421 Br
0.016418 0.875139 0.770061 Br
0.265620 0.874953 0.019353 Br
0.515636 0.875725 0.269060 Br
0.765297 0.874582 0.518084 Br
0.016783 0.374696 0.769836 Br
0.265134 0.375028 0.019236 Br
0.759023 0.375457 0.527514 Br
0.515660 0.873707 0.769470 Br
0.765767 0.875032 0.019995 Br
0.518530 0.376179 0.761519 Br
0.766583 0.374702 0.018467 Br
0.873887 0.982185 0.224571 Br
0.123877 0.981883 0.474591 Br
0.873768 0.482088 0.225000 Br
0.119982 0.482938 0.474901 Br
0.873913 0.981643 0.724509 Br
0.123932 0.982139 0.974584 Br
0.373948 0.982150 0.224432 Br
0.623811 0.982213 0.474610 Br
0.876421 0.481946 0.726052 Br
0.124081 0.481938 0.974414 Br
0.374327 0.482146 0.224492 Br
0.374035 0.981990 0.724601 Br
0.623838 0.982062 0.974518 Br
0.623760 0.481680 0.974195 Br
0.974509 0.017847 0.373976 Br
0.224624 0.017997 0.623904 Br
0.973036 0.518952 0.373892 Br
0.221524 0.517807 0.623877 Br
0.974570 0.017881 0.873927 Br
0.224494 0.018055 0.123891 Br
0.474512 0.018134 0.373877 Br
0.724865 0.017815 0.623857 Br
0.974615 0.517675 0.874210 Br
0.224768 0.517900 0.123949 Br
0.474587 0.017750 0.873841 Br
0.724524 0.018047 0.123946 Br
0.477372 0.518183 0.866632 Br
0.723836 0.517496 0.125647 Br
0.025593 0.767925 0.126295 Br
0.275718 0.768010 0.376203 Br
0.025439 0.268080 0.126191 Br
0.024998 0.767694 0.626051 Br
0.275638 0.767942 0.876080 Br
0.525151 0.767961 0.125410 Br
0.775197 0.767840 0.375897 Br
0.025228 0.267794 0.626100 Br
0.275722 0.268161 0.876040 Br
0.525981 0.268942 0.126145 Br
0.774409 0.269411 0.376655 Br
0.525756 0.768362 0.625749 Br
0.775477 0.768325 0.876232 Br
0.776172 0.266329 0.876379 Br
0.126163 0.232195 0.275593 Br
0.374634 0.230421 0.524104 Br
0.126221 0.731948 0.275671 Br
0.126364 0.231958 0.775842 Br
0.376227 0.232050 0.025570 Br
0.626037 0.232291 0.275758 Br
0.875456 0.232257 0.525523 Br
0.126341 0.732314 0.775622 Br
0.376200 0.731855 0.025242 Br
0.875719 0.731791 0.524671 Br
0.626926 0.233538 0.771440 Br
0.876024 0.232012 0.025818 Br
0.626281 0.731451 0.774395 Br
0.876127 0.732272 0.025902 Br
0.874103 0.767921 0.224380 Br
0.123746 0.767760 0.474330 Br
0.873807 0.268149 0.224679 Br
0.123136 0.267702 0.474402 Br
0.874223 0.768618 0.724880 Br
0.123984 0.767935 0.974529 Br
0.373750 0.768315 0.224022 Br
0.623601 0.768083 0.474637 Br
0.875206 0.266904 0.723276 Br
0.123924 0.268015 0.974431 Br
0.374006 0.268049 0.224133 Br
0.374088 0.767863 0.724633 Br
0.623916 0.767802 0.974565 Br
0.623892 0.268320 0.974143 Br
0.974240 0.232187 0.373934 Br
0.225610 0.232709 0.623806 Br
0.973715 0.731272 0.373965 Br
0.223909 0.732069 0.623893 Br
0.974297 0.232023 0.873926 Br
0.224397 0.232046 0.123799 Br
0.474277 0.232322 0.373506 Br
0.727208 0.226154 0.624401 Br
0.974598 0.732496 0.874071 Br
0.224502 0.732050 0.123947 Br
0.474753 0.232364 0.874335 Br
0.724503 0.232027 0.124173 Br
0.475666 0.728910 0.873185 Br
0.724716 0.732331 0.123865 Br
0.126138 0.017988 0.275471 Br
0.376086 0.018120 0.525452 Br
0.126388 0.518107 0.276199 Br
0.126190 0.017926 0.775445 Br
0.376163 0.017943 0.025399 Br
0.626046 0.018038 0.275381 Br
0.875987 0.017698 0.525215 Br
0.128138 0.517388 0.775413 Br
0.376569 0.518188 0.025197 Br
0.867995 0.517613 0.522163 Br
0.626081 0.017946 0.775426 Br
0.876045 0.017878 0.025647 Br
0.626826 0.518340 0.770633 Br
0.876092 0.517830 0.026468 Br
0.025480 0.982125 0.126155 Br
0.275363 0.982048 0.376134 Br
0.025590 0.481966 0.126416 Br
0.025299 0.982034 0.626081 Br
0.275532 0.981959 0.876073 Br
0.525451 0.982139 0.126066 Br
0.775424 0.982136 0.376116 Br
0.022413 0.482189 0.625634 Br
0.277059 0.481525 0.875770 Br
0.526229 0.481642 0.122215 Br
0.768908 0.478941 0.378913 Br
0.525360 0.982061 0.626078 Br
0.775412 0.981750 0.876131 Br
0.776536 0.483050 0.878343 Br
0.384887 0.374056 0.350245 Cs
0.638060 0.357629 0.622122 Cs
0.601536 0.632405 0.381470 Cs
0.349478 0.628622 0.637349 Cs
0.382603 0.367078 0.613705 Cs
0.646327 0.371776 0.362692 Cs
0.617853 0.627706 0.638485 Cs
0.364549 0.626422 0.395833 Cs
0.249760 0.249702 0.249879 Pb
0.498916 0.249908 0.498926 Pb
0.499908 0.250022 0.249456 Pb
0.248762 0.248756 0.499208 Pb
0.500445 0.500127 0.246485 Pb
0.246883 0.500784 0.500303 Pb
0.249823 0.500533 0.250198 Pb
0.490303 0.500692 0.496130 Pb
0.486260 0.623938 0.721206 Br
0.728460 0.623738 0.479391 Br
0.740035 0.375041 0.740019 Br
0.473158 0.376267 0.486162 Br
0.270174 0.625375 0.265657 Br
0.513915 0.625680 0.510850 Br
0.516323 0.376089 0.268877 Br
0.259506 0.375143 0.515518 Br
0.376203 0.481718 0.721594 Br
0.481458 0.518056 0.371947 Br
0.738488 0.527118 0.627911 Br
0.517640 0.264035 0.625822 Br
0.275406 0.267726 0.375886 Br
0.625938 0.735498 0.272493 Br
0.375825 0.732361 0.525453 Br
0.374069 0.264816 0.727428 Br
0.623090 0.269969 0.477633 Br
0.473990 0.734272 0.373404 Br
0.727361 0.733922 0.623808 Br
0.625579 0.518223 0.276141 Br
0.371962 0.514207 0.536730 Br
0.277744 0.484023 0.376933 Br
0.597272 0.488249 0.556266 Br
