Pb4 Br8                                 
   1.0000000000000000     
     4.4557334469450431    0.0000000000000003    0.0000000000000000
     0.0000000000000001    7.7227814869647968    0.0000000000000000
     0.0000000000000000    0.0000000000000000   12.7870693237665662
   Pb   Br
     4     8
Direct
  0.2500000000000000  0.2456071711695955  0.4860137343471109
  0.7500000000000000  0.7543928288304045  0.5139862656528891
  0.2500000000000000  0.7456071711695955  0.0139862656528891
  0.7500000000000000  0.2543928288304045  0.9860137343471109
  0.2500000000000000  0.9469887123896470  0.6325429622543908
  0.7500000000000000  0.0530112876103530  0.3674570377456092
  0.2500000000000000  0.4469887123896470  0.8674570377456092
  0.7500000000000000  0.5530112876103530  0.1325429622543908
  0.7500000000000000  0.8896200687010349  0.8802238801719540
  0.2500000000000000  0.1103799312989651  0.1197761198280460
  0.7500000000000000  0.3896200687010349  0.6197761198280460
  0.2500000000000000  0.6103799312989651  0.3802238801719540

  0.00000000E+00  0.00000000E+00  0.00000000E+00
  0.00000000E+00  0.00000000E+00  0.00000000E+00
  0.00000000E+00  0.00000000E+00  0.00000000E+00
  0.00000000E+00  0.00000000E+00  0.00000000E+00
  0.00000000E+00  0.00000000E+00  0.00000000E+00
  0.00000000E+00  0.00000000E+00  0.00000000E+00
  0.00000000E+00  0.00000000E+00  0.00000000E+00
  0.00000000E+00  0.00000000E+00  0.00000000E+00
  0.00000000E+00  0.00000000E+00  0.00000000E+00
  0.00000000E+00  0.00000000E+00  0.00000000E+00
  0.00000000E+00  0.00000000E+00  0.00000000E+00
  0.00000000E+00  0.00000000E+00  0.00000000E+00
