Pb4 Br8                                 
   1.0000000000000000     
     4.4557334469450431    0.0000000000000003    0.0000000000000000
     0.0000000000000001    7.7227814869647968    0.0000000000000000
     0.0000000000000000    0.0000000000000000   12.7870693237665662
   Pb   Br
     4     8
Direct
  0.2500000000000000  0.2456071711695925  0.4860137343471145
  0.7500000000000000  0.7543928288304073  0.5139862656528859
  0.2500000000000000  0.7456071711695927  0.0139862656528856
  0.7500000000000000  0.2543928288304075  0.9860137343471141
  0.2500000000000000  0.9469887123896500  0.6325429622543884
  0.7500000000000000  0.0530112876103502  0.3674570377456116
  0.2500000000000000  0.4469887123896499  0.8674570377456116
  0.7500000000000000  0.5530112876103500  0.1325429622543884
  0.7500000000000000  0.8896200687010383  0.8802238801719524
  0.2500000000000000  0.1103799312989617  0.1197761198280474
  0.7500000000000000  0.3896200687010383  0.6197761198280476
  0.2500000000000000  0.6103799312989617  0.3802238801719527

  0.00000000E+00  0.00000000E+00  0.00000000E+00
  0.00000000E+00  0.00000000E+00  0.00000000E+00
  0.00000000E+00  0.00000000E+00  0.00000000E+00
  0.00000000E+00  0.00000000E+00  0.00000000E+00
  0.00000000E+00  0.00000000E+00  0.00000000E+00
  0.00000000E+00  0.00000000E+00  0.00000000E+00
  0.00000000E+00  0.00000000E+00  0.00000000E+00
  0.00000000E+00  0.00000000E+00  0.00000000E+00
  0.00000000E+00  0.00000000E+00  0.00000000E+00
  0.00000000E+00  0.00000000E+00  0.00000000E+00
  0.00000000E+00  0.00000000E+00  0.00000000E+00
  0.00000000E+00  0.00000000E+00  0.00000000E+00
