Cs7 Pb8 Br24                            
   1.0000000000000000     
     8.4200180000000007    0.0000000000000000    8.0779809999999994
     0.0000000000000000   11.7638079999999992    0.0000000000000000
    -8.4200180000000007    0.0000000000000000    8.0779809999999994
   Cs   Pb   Br   Cs
     6     8    24     1
Direct
  0.2704639999999969  0.2493109999999987  0.2018380000000022
  0.7725840000000019  0.2486260000000016  0.7212770000000006
  0.2077280000000030  0.7543610000000029  0.7654210000000035
  0.2923710000000028  0.2458260000000010  0.7345430000000022
  0.7274499999999975  0.7512779999999992  0.7790439999999990
  0.2295620000000014  0.7506989999999973  0.2982629999999986
  0.9974869999999996  0.9980029999999971  0.0051270000000017
  0.5025720000000007  0.0020129999999980  0.4948570000000032
  0.5031800000000004  0.9976649999999978  0.0005939999999995
  0.9967449999999971  0.0024230000000003  0.4993959999999973
  0.5001979999999975  0.5019550000000024  0.9973630000000000
  0.9997079999999983  0.4981719999999967  0.5026409999999970
  0.0000879999999981  0.5009069999999980  0.0025679999999966
  0.4999309999999966  0.4992370000000008  0.4974139999999991
  0.4653909999999968  0.7492870000000025  0.9488029999999981
  0.9709989999999991  0.7500539999999987  0.4716900000000024
  0.9752989999999997  0.2498429999999985  0.9696220000000011
  0.4488839999999996  0.2505000000000024  0.4694879999999984
  0.0513150000000024  0.7496179999999981  0.0305400000000020
  0.5248470000000012  0.7502720000000025  0.5303589999999971
  0.5287959999999998  0.2500300000000024  0.0281110000000027
  0.0346690000000009  0.2508279999999985  0.5512840000000025
  0.2484359999999981  0.4653940000000034  0.9487549999999985
  0.7482230000000030  0.4588380000000001  0.4733879999999999
  0.4430890000000005  0.5297460000000029  0.2461950000000002
  0.9579629999999995  0.5418189999999967  0.7501910000000009
  0.5478719999999981  0.0345299999999966  0.7503570000000011
  0.0577990000000028  0.0300390000000021  0.2538369999999972
  0.7527520000000010  0.9492150000000024  0.0407170000000008
  0.2504330000000010  0.9689679999999967  0.5490089999999981
  0.2495750000000001  0.0311730000000026  0.9509410000000003
  0.7472229999999982  0.0506949999999975  0.4592669999999970
  0.4420929999999998  0.9701379999999986  0.2461479999999980
  0.9519420000000025  0.9653750000000016  0.7496769999999984
  0.7518439999999984  0.5407050000000027  0.0265089999999972
  0.2516109999999969  0.5346929999999972  0.5512670000000028
  0.5420239999999978  0.4585089999999994  0.7498229999999992
  0.0569169999999986  0.4702079999999995  0.2537790000000015
  0.7498860000000036  0.4993309999999980  0.2499189999999984

  0.00000000E+00  0.00000000E+00  0.00000000E+00
  0.00000000E+00  0.00000000E+00  0.00000000E+00
  0.00000000E+00  0.00000000E+00  0.00000000E+00
  0.00000000E+00  0.00000000E+00  0.00000000E+00
  0.00000000E+00  0.00000000E+00  0.00000000E+00
  0.00000000E+00  0.00000000E+00  0.00000000E+00
  0.00000000E+00  0.00000000E+00  0.00000000E+00
  0.00000000E+00  0.00000000E+00  0.00000000E+00
  0.00000000E+00  0.00000000E+00  0.00000000E+00
  0.00000000E+00  0.00000000E+00  0.00000000E+00
  0.00000000E+00  0.00000000E+00  0.00000000E+00
  0.00000000E+00  0.00000000E+00  0.00000000E+00
  0.00000000E+00  0.00000000E+00  0.00000000E+00
  0.00000000E+00  0.00000000E+00  0.00000000E+00
  0.00000000E+00  0.00000000E+00  0.00000000E+00
  0.00000000E+00  0.00000000E+00  0.00000000E+00
  0.00000000E+00  0.00000000E+00  0.00000000E+00
  0.00000000E+00  0.00000000E+00  0.00000000E+00
  0.00000000E+00  0.00000000E+00  0.00000000E+00
  0.00000000E+00  0.00000000E+00  0.00000000E+00
  0.00000000E+00  0.00000000E+00  0.00000000E+00
  0.00000000E+00  0.00000000E+00  0.00000000E+00
  0.00000000E+00  0.00000000E+00  0.00000000E+00
  0.00000000E+00  0.00000000E+00  0.00000000E+00
  0.00000000E+00  0.00000000E+00  0.00000000E+00
  0.00000000E+00  0.00000000E+00  0.00000000E+00
  0.00000000E+00  0.00000000E+00  0.00000000E+00
  0.00000000E+00  0.00000000E+00  0.00000000E+00
  0.00000000E+00  0.00000000E+00  0.00000000E+00
  0.00000000E+00  0.00000000E+00  0.00000000E+00
  0.00000000E+00  0.00000000E+00  0.00000000E+00
  0.00000000E+00  0.00000000E+00  0.00000000E+00
  0.00000000E+00  0.00000000E+00  0.00000000E+00
  0.00000000E+00  0.00000000E+00  0.00000000E+00
  0.00000000E+00  0.00000000E+00  0.00000000E+00
  0.00000000E+00  0.00000000E+00  0.00000000E+00
  0.00000000E+00  0.00000000E+00  0.00000000E+00
  0.00000000E+00  0.00000000E+00  0.00000000E+00
  0.00000000E+00  0.00000000E+00  0.00000000E+00
