Cs7 Pb8 Br24
1.0
8.420018 0.000000 8.077981
0.000000 11.763808 0.000000
-8.420018 0.000000 8.077981
Cs Pb Br Cs
6 8 24 1
direct
0.270464 0.249311 0.201838 Cs
0.772584 0.248626 0.721277 Cs
0.207728 0.754361 0.765421 Cs
0.292371 0.245826 0.734543 Cs
0.727450 0.751278 0.779044 Cs
0.229562 0.750699 0.298263 Cs
-0.002513 -0.001997 0.005127 Pb
0.502572 0.002013 0.494857 Pb
0.503180 -0.002335 0.000594 Pb
-0.003255 0.002423 0.499396 Pb
0.500198 0.501955 -0.002637 Pb
-0.000292 0.498172 0.502641 Pb
0.000088 0.500907 0.002568 Pb
0.499931 0.499237 0.497414 Pb
0.465391 0.749287 0.948803 Br
0.970999 0.750054 0.471690 Br
0.975299 0.249843 0.969622 Br
0.448884 0.250500 0.469488 Br
0.051315 0.749618 0.030540 Br
0.524847 0.750272 0.530359 Br
0.528796 0.250030 0.028111 Br
0.034669 0.250828 0.551284 Br
0.248436 0.465394 0.948755 Br
0.748223 0.458838 0.473388 Br
0.443089 0.529746 0.246195 Br
0.957963 0.541819 0.750191 Br
0.547872 0.034530 0.750357 Br
0.057799 0.030039 0.253837 Br
0.752752 0.949215 0.040717 Br
0.250433 0.968968 0.549009 Br
0.249575 0.031173 0.950941 Br
0.747223 0.050695 0.459267 Br
0.442093 0.970138 0.246148 Br
0.951942 0.965375 0.749677 Br
0.751844 0.540705 0.026509 Br
0.251611 0.534693 0.551267 Br
0.542024 0.458509 0.749823 Br
0.056917 0.470208 0.253779 Br
0.749886 0.499331 0.249919 Cs
