Cs8 Pb8 Br23                            
   1.0000000000000000     
     8.4564889999999995    0.0000000000000000    8.0403009999999995
     0.0000000000000000   11.7298469999999995    0.0000000000000000
    -8.4564889999999995    0.0000000000000000    8.0403009999999995
   Cs   Pb   Br
     8     8    23
Direct
  0.2662309999999977  0.2374829999999974  0.1948610000000031
  0.7734019999999973  0.2284659999999974  0.7438580000000030
  0.7062460000000002  0.7773240000000001  0.2605300000000028
  0.2281940000000020  0.7510359999999991  0.7774199999999993
  0.2563609999999983  0.2451930000000004  0.7297349999999980
  0.8098280000000031  0.2490900000000025  0.2285200000000032
  0.7285049999999984  0.7563779999999980  0.7850650000000030
  0.2220200000000006  0.7578510000000023  0.3003629999999973
  0.0072990000000033  0.9938700000000011  0.0004660000000030
  0.4914210000000026  0.0052439999999976  0.4995410000000007
  0.5012320000000017  0.9992220000000032  0.0007570000000001
  0.9928910000000002  0.0002860000000027  0.5003969999999995
  0.5221090000000004  0.4934519999999978  0.0043539999999993
  0.9883499999999970  0.5043360000000021  0.4930530000000033
  0.0141059999999982  0.5013030000000001  0.9951050000000023
  0.4850739999999973  0.4963639999999998  0.5159779999999969
  0.4849400000000017  0.7453470000000024  0.9830710000000025
  0.9534080000000031  0.7517789999999991  0.4586490000000012
  0.9928639999999973  0.2480019999999996  0.9738049999999987
  0.4296259999999990  0.2536599999999964  0.4768100000000004
  0.0545419999999979  0.7477000000000018  0.0298259999999999
  0.5186490000000035  0.7485659999999967  0.5219299999999976
  0.5436589999999981  0.2479209999999981  0.0454920000000030
  0.0006690000000020  0.2541820000000001  0.5320189999999982
  0.2685069999999996  0.4675149999999988  0.9542300000000026
  0.9462600000000023  0.5302569999999989  0.7388819999999967
  0.5381959999999992  0.0284520000000015  0.7527850000000029
  0.0490240000000028  0.0282770000000028  0.2534720000000021
  0.7586020000000033  0.9789529999999971  0.0353929999999991
  0.2437510000000032  0.9647480000000002  0.5513669999999991
  0.2541849999999997  0.0282979999999995  0.9466979999999978
  0.7389780000000030  0.0422489999999982  0.4546470000000014
  0.4421379999999999  0.9696700000000007  0.2483110000000011
  0.9565959999999976  0.9628560000000022  0.7484249999999975
  0.7699890000000025  0.5432360000000003  0.0416590000000028
  0.2261230000000012  0.5363350000000011  0.5442049999999981
  0.5630239999999986  0.4655920000000009  0.7634630000000016
  0.0615069999999989  0.4683989999999980  0.2471469999999982
  0.6356820000000027  0.4852750000000015  0.3345640000000003

  0.00000000E+00  0.00000000E+00  0.00000000E+00
  0.00000000E+00  0.00000000E+00  0.00000000E+00
  0.00000000E+00  0.00000000E+00  0.00000000E+00
  0.00000000E+00  0.00000000E+00  0.00000000E+00
  0.00000000E+00  0.00000000E+00  0.00000000E+00
  0.00000000E+00  0.00000000E+00  0.00000000E+00
  0.00000000E+00  0.00000000E+00  0.00000000E+00
  0.00000000E+00  0.00000000E+00  0.00000000E+00
  0.00000000E+00  0.00000000E+00  0.00000000E+00
  0.00000000E+00  0.00000000E+00  0.00000000E+00
  0.00000000E+00  0.00000000E+00  0.00000000E+00
  0.00000000E+00  0.00000000E+00  0.00000000E+00
  0.00000000E+00  0.00000000E+00  0.00000000E+00
  0.00000000E+00  0.00000000E+00  0.00000000E+00
  0.00000000E+00  0.00000000E+00  0.00000000E+00
  0.00000000E+00  0.00000000E+00  0.00000000E+00
  0.00000000E+00  0.00000000E+00  0.00000000E+00
  0.00000000E+00  0.00000000E+00  0.00000000E+00
  0.00000000E+00  0.00000000E+00  0.00000000E+00
  0.00000000E+00  0.00000000E+00  0.00000000E+00
  0.00000000E+00  0.00000000E+00  0.00000000E+00
  0.00000000E+00  0.00000000E+00  0.00000000E+00
  0.00000000E+00  0.00000000E+00  0.00000000E+00
  0.00000000E+00  0.00000000E+00  0.00000000E+00
  0.00000000E+00  0.00000000E+00  0.00000000E+00
  0.00000000E+00  0.00000000E+00  0.00000000E+00
  0.00000000E+00  0.00000000E+00  0.00000000E+00
  0.00000000E+00  0.00000000E+00  0.00000000E+00
  0.00000000E+00  0.00000000E+00  0.00000000E+00
  0.00000000E+00  0.00000000E+00  0.00000000E+00
  0.00000000E+00  0.00000000E+00  0.00000000E+00
  0.00000000E+00  0.00000000E+00  0.00000000E+00
  0.00000000E+00  0.00000000E+00  0.00000000E+00
  0.00000000E+00  0.00000000E+00  0.00000000E+00
  0.00000000E+00  0.00000000E+00  0.00000000E+00
  0.00000000E+00  0.00000000E+00  0.00000000E+00
  0.00000000E+00  0.00000000E+00  0.00000000E+00
  0.00000000E+00  0.00000000E+00  0.00000000E+00
  0.00000000E+00  0.00000000E+00  0.00000000E+00
