Cs8 Pb8 Br23
1.0
8.456489 0.000000 8.040301
0.000000 11.729847 0.000000
-8.456489 0.000000 8.040301
Cs Pb Br
8 8 23
direct
0.266231 0.237483 0.194861 Cs
0.773402 0.228466 0.743858 Cs
0.706246 0.777324 0.260530 Cs
0.228194 0.751036 0.777420 Cs
0.256361 0.245193 0.729735 Cs
0.809828 0.249090 0.228520 Cs
0.728505 0.756378 0.785065 Cs
0.222020 0.757851 0.300363 Cs
0.007299 -0.006130 0.000466 Pb
0.491421 0.005244 0.499541 Pb
0.501232 -0.000778 0.000757 Pb
-0.007109 0.000286 0.500397 Pb
0.522109 0.493452 0.004354 Pb
-0.011650 0.504336 0.493053 Pb
0.014106 0.501303 -0.004895 Pb
0.485074 0.496364 0.515978 Pb
0.484940 0.745347 0.983071 Br
0.953408 0.751779 0.458649 Br
0.992864 0.248002 0.973805 Br
0.429626 0.253660 0.476810 Br
0.054542 0.747700 0.029826 Br
0.518649 0.748566 0.521930 Br
0.543659 0.247921 0.045492 Br
0.000669 0.254182 0.532019 Br
0.268507 0.467515 0.954230 Br
0.946260 0.530257 0.738882 Br
0.538196 0.028452 0.752785 Br
0.049024 0.028277 0.253472 Br
0.758602 0.978953 0.035393 Br
0.243751 0.964748 0.551367 Br
0.254185 0.028298 0.946698 Br
0.738978 0.042249 0.454647 Br
0.442138 0.969670 0.248311 Br
0.956596 0.962856 0.748425 Br
0.769989 0.543236 0.041659 Br
0.226123 0.536335 0.544205 Br
0.563024 0.465592 0.763463 Br
0.061507 0.468399 0.247147 Br
0.635682 0.485275 0.334564 Br
