Cs4 Pb4 Br12                            
   1.0000000000000000     
    -5.9379407585739656   -5.9371682403438530    0.0000000000000000
    -5.7397807531628118    5.7349482891852519    0.0000000000000000
     0.0000000000000000    0.0000000000000000  -11.7438326549726195
   Cs   Pb   Br
     4     4    12
Direct
  0.5619114079342111  0.0175956950734601  0.7500000000000000
  0.4380885920657889  0.9824043049265399  0.2500000000000000
  0.0620604262398459  0.4821064126869530  0.7500000000000000
  0.9379395737601541  0.5178935873130470  0.2500000000000000
  0.0000000000000000  0.0000000000000000  0.0000000000000000
  0.0000000000000000  0.0000000000000000  0.5000000000000000
  0.5000000000000000  0.5000000000000000  0.0000000000000000
  0.5000000000000000  0.5000000000000000  0.5000000000000000
  0.7972557033332208  0.3000079932726152  0.9639488329958894
  0.7972557033332208  0.3000079932726152  0.5360511670041106
  0.2027442966667792  0.6999920067273848  0.0360511670041106
  0.2027442966667792  0.6999920067273848  0.4639488329958894
  0.9937187025369880  0.9297425006839148  0.7500000000000000
  0.0062812974630120  0.0702574993160852  0.2500000000000000
  0.4937792355443733  0.5695573127477829  0.7500000000000000
  0.5062207644556267  0.4304426872522171  0.2500000000000000
  0.7030815345092805  0.7996463544675052  0.0362379949371814
  0.7030815345092805  0.7996463544675052  0.4637620050628186
  0.2969184654907195  0.2003536455324948  0.9637620050628186
  0.2969184654907195  0.2003536455324948  0.5362379949371814

  0.00000000E+00  0.00000000E+00  0.00000000E+00
  0.00000000E+00  0.00000000E+00  0.00000000E+00
  0.00000000E+00  0.00000000E+00  0.00000000E+00
  0.00000000E+00  0.00000000E+00  0.00000000E+00
  0.00000000E+00  0.00000000E+00  0.00000000E+00
  0.00000000E+00  0.00000000E+00  0.00000000E+00
  0.00000000E+00  0.00000000E+00  0.00000000E+00
  0.00000000E+00  0.00000000E+00  0.00000000E+00
  0.00000000E+00  0.00000000E+00  0.00000000E+00
  0.00000000E+00  0.00000000E+00  0.00000000E+00
  0.00000000E+00  0.00000000E+00  0.00000000E+00
  0.00000000E+00  0.00000000E+00  0.00000000E+00
  0.00000000E+00  0.00000000E+00  0.00000000E+00
  0.00000000E+00  0.00000000E+00  0.00000000E+00
  0.00000000E+00  0.00000000E+00  0.00000000E+00
  0.00000000E+00  0.00000000E+00  0.00000000E+00
  0.00000000E+00  0.00000000E+00  0.00000000E+00
  0.00000000E+00  0.00000000E+00  0.00000000E+00
  0.00000000E+00  0.00000000E+00  0.00000000E+00
  0.00000000E+00  0.00000000E+00  0.00000000E+00
