Cs64 Pb64 Br191
1.0
16.840035 0.000000 16.155961
0.000000 23.527616 0.000000
-16.840035 0.000000 16.155961
Cs Pb Br Cs Pb Br
56 56 168 8 8 23
direct
0.886075 0.875092 0.353638 Cs
0.136055 0.875039 0.603815 Cs
0.886146 0.374953 0.353472 Cs
0.135884 0.374889 0.603889 Cs
0.887282 0.875765 0.854040 Cs
0.135858 0.875120 0.103332 Cs
0.384164 0.875198 0.350998 Cs
0.637408 0.875166 0.604470 Cs
0.886279 0.374912 0.853970 Cs
0.135901 0.374889 0.103540 Cs
0.385840 0.875439 0.854101 Cs
0.636075 0.875112 0.103560 Cs
0.386654 0.374811 0.851879 Cs
0.636641 0.374906 0.103450 Cs
0.103395 0.124942 0.385922 Cs
0.352698 0.124610 0.636106 Cs
0.101667 0.625031 0.385394 Cs
0.103559 0.124998 0.886040 Cs
0.354070 0.125030 0.135958 Cs
0.604010 0.125009 0.384839 Cs
0.853950 0.125055 0.636216 Cs
0.103856 0.625000 0.886178 Cs
0.352689 0.624999 0.134863 Cs
0.853738 0.625169 0.636418 Cs
0.603999 0.125128 0.886397 Cs
0.853805 0.125021 0.135966 Cs
0.603921 0.625118 0.886753 Cs
0.853692 0.625000 0.136595 Cs
0.896462 0.875077 0.113898 Cs
0.146031 0.875104 0.363638 Cs
0.896454 0.374920 0.113967 Cs
0.146214 0.374725 0.363896 Cs
0.896443 0.875145 0.614008 Cs
0.146383 0.875099 0.864054 Cs
0.395793 0.875050 0.113812 Cs
0.647560 0.875019 0.364024 Cs
0.896548 0.374866 0.614026 Cs
0.146725 0.374885 0.863619 Cs
0.395682 0.374922 0.113252 Cs
0.395971 0.875080 0.615147 Cs
0.646492 0.876018 0.864725 Cs
0.644476 0.374933 0.863402 Cs
0.113766 0.125013 0.146117 Cs
0.363615 0.124811 0.395828 Cs
0.114192 0.625013 0.146579 Cs
0.114027 0.125045 0.646343 Cs
0.363969 0.125202 0.896473 Cs
0.613972 0.125039 0.146392 Cs
0.864108 0.125011 0.396171 Cs
0.113866 0.624996 0.646086 Cs
0.364618 0.624805 0.896535 Cs
0.614347 0.625120 0.143836 Cs
0.864137 0.625027 0.396161 Cs
0.614685 0.124995 0.646930 Cs
0.864191 0.125067 0.896576 Cs
0.863715 0.625030 0.895791 Cs
0.750438 0.750450 0.249634 Pb
0.000170 0.750144 0.500049 Pb
0.750202 0.249738 0.249845 Pb
-0.000055 0.249802 0.499982 Pb
0.750978 0.751891 0.751477 Pb
0.000039 0.749831 0.000054 Pb
0.249377 0.750669 0.249452 Pb
0.499497 0.753415 0.499195 Pb
0.750223 0.250011 0.750179 Pb
0.000022 0.250117 -0.000011 Pb
0.249886 0.750055 0.750242 Pb
0.499959 0.750466 0.000141 Pb
0.249764 0.249533 0.750352 Pb
0.500004 0.250117 0.000061 Pb
0.000093 0.750217 0.249893 Pb
0.249708 0.749633 0.500139 Pb
0.999991 0.249935 0.249922 Pb
0.000263 0.750101 0.750197 Pb
0.249860 0.750194 0.999835 Pb
0.499924 0.749706 0.249648 Pb
0.751016 0.750410 0.500162 Pb
0.999950 0.250034 0.750060 Pb
0.249871 0.249905 0.999915 Pb
0.750134 0.249806 0.500138 Pb
0.500032 0.751612 0.751517 Pb
0.750243 0.750157 0.000222 Pb
0.500178 0.249748 0.749975 Pb
0.750139 0.250085 -0.000005 Pb
0.999964 0.000124 0.249918 Pb
0.249743 0.999540 0.499958 Pb
0.000104 0.499795 0.249884 Pb
0.000060 0.000155 0.750017 Pb
0.249891 0.000174 0.999939 Pb
0.500106 0.999713 0.249883 Pb
0.750247 0.000514 0.499981 Pb
0.000065 0.500058 0.750104 Pb
0.249811 0.499799 0.999785 Pb
0.750520 0.499586 0.500282 Pb
0.499951 0.000820 0.750207 Pb
0.750165 0.000219 0.000107 Pb
0.499951 0.501766 0.748430 Pb
0.750285 0.499950 0.000023 Pb
0.750166 0.000139 0.249866 Pb
0.000017 0.000006 0.500007 Pb
0.750452 0.499667 0.249549 Pb
-0.000085 0.499808 0.499955 Pb
0.750292 0.000570 0.750293 Pb
0.000071 1.000107 0.000065 Pb
0.249780 0.000423 0.249800 Pb
0.500174 0.001062 0.500177 Pb
0.750425 0.499343 0.750244 Pb
0.000044 0.500114 0.000020 Pb
0.249854 -0.000105 0.750121 Pb
0.499987 0.000303 0.000082 Pb
0.249810 0.500082 0.750312 Pb
0.499908 0.499595 -0.000737 Pb
0.984263 0.125035 0.230784 Br
0.234382 0.124438 0.480557 Br
0.984581 0.625007 0.231249 Br
0.231556 0.624968 0.480082 Br
0.984438 0.125107 0.730587 Br
0.234208 0.125044 0.980374 Br
0.484636 0.125188 0.231973 Br
0.733572 0.125186 0.480074 Br
0.984286 0.625089 0.730602 Br
0.234827 0.624982 0.980786 Br
0.484855 0.625165 0.226925 Br
0.484034 0.125551 0.729198 Br
0.734426 0.125161 0.980700 Br
0.734282 0.625118 0.980775 Br
0.230776 0.875382 0.234040 Br
0.480498 0.869954 0.483410 Br
0.230946 0.374665 0.234383 Br
0.230980 0.874748 0.734115 Br
0.480816 0.875308 0.984631 Br
0.730757 0.875072 0.234087 Br
0.980710 0.874891 0.484236 Br
0.232784 0.374908 0.733290 Br
0.480170 0.375132 0.983305 Br
0.731545 0.374899 0.233681 Br
0.980641 0.374916 0.484225 Br
0.730456 0.875862 0.734819 Br
0.981231 0.874961 0.984638 Br
0.980773 0.375132 0.984422 Br
0.769271 0.124960 0.265904 Br
0.019293 0.124892 0.515841 Br
0.767196 0.625007 0.266899 Br
0.018570 0.624893 0.515843 Br
0.769601 0.125529 0.765892 Br
0.019179 0.125092 0.015622 Br
0.269931 0.124983 0.265709 Br
0.519035 0.124085 0.515192 Br
0.766144 0.625656 0.764601 Br
0.019756 0.624978 0.015928 Br
0.269147 0.124752 0.766033 Br
0.519259 0.125343 0.015900 Br
0.269133 0.624869 0.766760 Br
0.518278 0.625007 0.014387 Br
0.015531 0.875090 0.269298 Br
0.266910 0.874269 0.519885 Br
0.015740 0.374957 0.269419 Br
0.016209 0.875059 0.768983 Br
0.265686 0.875096 0.019000 Br
0.515650 0.874483 0.271369 Br
0.765612 0.875245 0.518479 Br
0.015825 0.375163 0.769154 Br
0.265411 0.374941 0.019107 Br
0.764535 0.375018 0.520416 Br
0.515932 0.876096 0.769356 Br
0.765651 0.875104 0.019430 Br
0.515969 0.376096 0.762952 Br
0.766104 0.375181 0.019290 Br
0.873906 0.982054 0.224535 Br
0.124154 0.981839 0.474565 Br
0.874024 0.482185 0.224379 Br
0.123665 0.481990 0.474322 Br
0.873884 0.982095 0.724472 Br
0.123982 0.982125 0.974498 Br
0.374070 0.981988 0.224573 Br
0.623355 0.981859 0.474703 Br
0.873796 0.482248 0.724344 Br
0.123968 0.481996 0.974216 Br
0.373990 0.482087 0.224708 Br
0.374092 0.982148 0.724549 Br
0.623846 0.982434 0.974885 Br
0.623874 0.482027 0.974584 Br
0.974558 0.017938 0.374022 Br
0.224577 0.017908 0.623827 Br
0.974295 0.517834 0.374042 Br
0.224894 0.517890 0.623708 Br
0.974571 0.017974 0.873878 Br
0.224569 0.018107 0.123991 Br
0.474276 0.017357 0.374626 Br
0.724530 0.017950 0.623854 Br
0.974463 0.518046 0.873844 Br
0.224342 0.517480 0.123630 Br
0.474625 0.018216 0.873727 Br
0.724473 0.018045 0.123989 Br
0.475417 0.516168 0.871084 Br
0.724760 0.517952 0.123932 Br
0.025582 0.767911 0.126147 Br
0.275481 0.767837 0.376068 Br
0.025493 0.267923 0.126111 Br
0.025447 0.767980 0.626003 Br
0.275611 0.768004 0.875896 Br
0.524922 0.768313 0.126945 Br
0.775310 0.767784 0.376051 Br
0.025454 0.267939 0.625986 Br
0.275738 0.268174 0.875939 Br
0.525384 0.268552 0.126354 Br
0.775459 0.268097 0.376202 Br
0.527444 0.765003 0.625362 Br
0.777014 0.768584 0.876340 Br
0.775326 0.268162 0.875991 Br
0.126196 0.231965 0.275533 Br
0.376399 0.231909 0.525597 Br
0.126094 0.732464 0.275775 Br
0.126044 0.232156 0.775516 Br
0.376148 0.232082 0.025457 Br
0.626012 0.232417 0.275477 Br
0.875751 0.232049 0.525468 Br
0.126219 0.731981 0.775416 Br
0.376176 0.732287 0.025330 Br
0.876047 0.732078 0.525508 Br
0.625984 0.231970 0.775423 Br
0.876026 0.232089 0.025468 Br
0.626277 0.735071 0.778776 Br
0.876038 0.731861 0.025669 Br
0.873965 0.767902 0.224419 Br
0.124744 0.768086 0.474762 Br
0.873948 0.267883 0.224534 Br
0.124024 0.267683 0.474491 Br
0.873954 0.768136 0.724719 Br
0.123968 0.767901 0.974384 Br
0.374020 0.767797 0.225009 Br
0.623336 0.764899 0.473620 Br
0.873824 0.268099 0.724473 Br
0.123982 0.268016 0.974379 Br
0.374070 0.268174 0.224523 Br
0.374313 0.767852 0.724517 Br
0.623918 0.767968 0.974643 Br
0.623859 0.268116 0.974554 Br
0.974531 0.232049 0.374009 Br
0.224939 0.232230 0.623784 Br
0.974469 0.732181 0.374072 Br
0.224880 0.731759 0.623802 Br
0.974503 0.232126 0.873865 Br
0.224561 0.231927 0.123902 Br
0.474175 0.232488 0.374528 Br
0.724341 0.232190 0.623889 Br
0.974536 0.732001 0.873884 Br
0.224340 0.732517 0.123819 Br
0.474920 0.232429 0.873706 Br
0.724472 0.232007 0.123990 Br
0.473884 0.733722 0.874235 Br
0.724732 0.732112 0.123859 Br
0.126179 0.018017 0.275518 Br
0.376599 0.017481 0.525498 Br
0.126112 0.517587 0.275733 Br
0.126140 0.017969 0.775432 Br
0.376129 0.018003 0.025447 Br
0.625991 0.017691 0.275492 Br
0.875857 0.018040 0.525464 Br
0.126265 0.517835 0.775362 Br
0.376214 0.517780 0.024989 Br
0.875106 0.517816 0.525671 Br
0.626019 0.018371 0.775415 Br
0.876050 0.017938 0.025517 Br
0.625923 0.517386 0.776163 Br
0.876027 0.518190 0.025503 Br
0.025510 0.982143 0.126112 Br
0.275447 0.982009 0.376140 Br
0.025556 0.482073 0.126128 Br
0.025462 0.982046 0.625980 Br
0.275460 0.982133 0.876009 Br
0.525339 0.982015 0.126336 Br
0.775424 0.982087 0.376150 Br
0.025429 0.482046 0.625970 Br
0.276068 0.481667 0.875723 Br
0.525035 0.481623 0.124775 Br
0.775135 0.482167 0.376287 Br
0.525577 0.981628 0.625425 Br
0.775608 0.982113 0.876027 Br
0.775516 0.482054 0.875894 Br
0.383776 0.374603 0.351852 Cs
0.635150 0.376594 0.605393 Cs
0.611478 0.624914 0.380118 Cs
0.353850 0.623706 0.638923 Cs
0.390091 0.372823 0.615501 Cs
0.648483 0.374660 0.363529 Cs
0.622715 0.628675 0.659470 Cs
0.356964 0.625371 0.390719 Cs
0.249797 0.249520 0.249783 Pb
0.500144 0.247891 0.500216 Pb
0.500054 0.250534 0.249899 Pb
0.249462 0.249480 0.499729 Pb
0.499839 0.500387 0.248342 Pb
0.248845 0.500600 0.499665 Pb
0.249352 0.499416 0.249406 Pb
0.498025 0.495330 0.495989 Pb
0.485175 0.626665 0.734501 Br
0.734765 0.625016 0.482129 Br
0.729966 0.375321 0.734408 Br
0.478295 0.377665 0.487336 Br
0.265690 0.625066 0.262062 Br
0.515308 0.375872 0.272477 Br
0.264546 0.375059 0.517192 Br
0.374333 0.482680 0.723448 Br
0.622295 0.483313 0.473118 Br
0.476917 0.527267 0.373002 Br
0.723469 0.517821 0.623877 Br
0.525297 0.267632 0.625215 Br
0.275498 0.267460 0.376061 Br
0.626017 0.733360 0.273462 Br
0.377700 0.727547 0.524555 Br
0.374007 0.266398 0.725238 Br
0.623130 0.268498 0.475006 Br
0.477025 0.724658 0.376154 Br
0.726131 0.735055 0.624127 Br
0.625963 0.516795 0.272797 Br
0.376197 0.521698 0.522126 Br
0.275249 0.482368 0.375795 Br
0.523616 0.505981 0.618972 Br
