Cs64 Pb64 Br191
1.0
16.840035 0.000000 16.155961
0.000000 23.527616 0.000000
-16.840035 0.000000 16.155961
Cs Pb Br Cs Pb Br
56 56 168 8 8 23
direct
0.886165 0.874921 0.352893 Cs
0.136493 0.875013 0.606070 Cs
0.888580 0.371837 0.352600 Cs
0.136149 0.374934 0.606022 Cs
0.886503 0.875008 0.853336 Cs
0.136147 0.874998 0.102783 Cs
0.385568 0.876791 0.353341 Cs
0.636831 0.875633 0.605558 Cs
0.885373 0.375698 0.852931 Cs
0.137264 0.375094 0.104856 Cs
0.384771 0.875190 0.850672 Cs
0.636589 0.874450 0.107154 Cs
0.389493 0.375293 0.853224 Cs
0.634072 0.375374 0.100483 Cs
0.104049 0.125117 0.385595 Cs
0.353961 0.125707 0.635374 Cs
0.103269 0.624224 0.387847 Cs
0.103428 0.125025 0.886215 Cs
0.350900 0.124909 0.135119 Cs
0.602410 0.121252 0.388810 Cs
0.854525 0.124407 0.638275 Cs
0.103512 0.624936 0.885563 Cs
0.367258 0.624894 0.140090 Cs
0.854066 0.625130 0.634873 Cs
0.603752 0.125102 0.885685 Cs
0.854605 0.125073 0.135302 Cs
0.603123 0.624016 0.885976 Cs
0.849840 0.624834 0.138072 Cs
0.896188 0.874604 0.114504 Cs
0.146147 0.875109 0.364158 Cs
0.897207 0.376748 0.113881 Cs
0.146216 0.375287 0.361377 Cs
0.899412 0.875077 0.614818 Cs
0.146932 0.874896 0.864079 Cs
0.393830 0.875513 0.112117 Cs
0.648322 0.879147 0.360990 Cs
0.888147 0.372823 0.611584 Cs
0.146705 0.375082 0.864580 Cs
0.397016 0.376084 0.117317 Cs
0.395829 0.875118 0.614811 Cs
0.646471 0.874784 0.864637 Cs
0.645716 0.375730 0.864027 Cs
0.113681 0.124816 0.144915 Cs
0.361722 0.124024 0.396758 Cs
0.114907 0.624478 0.144459 Cs
0.113922 0.124824 0.646692 Cs
0.364008 0.125132 0.896937 Cs
0.613517 0.124671 0.144492 Cs
0.865298 0.124518 0.397364 Cs
0.113964 0.624777 0.645887 Cs
0.366447 0.621757 0.897326 Cs
0.614660 0.630722 0.136521 Cs
0.863216 0.625490 0.390965 Cs
0.613684 0.124971 0.645045 Cs
0.865003 0.124859 0.899055 Cs
0.862078 0.625209 0.897406 Cs
0.752964 0.752323 0.249362 Pb
0.999951 0.749971 0.499872 Pb
0.749885 0.249422 0.249790 Pb
0.000175 0.249704 0.500412 Pb
0.750142 0.749927 0.750031 Pb
0.999997 0.749627 0.999843 Pb
0.249891 0.749901 0.249418 Pb
0.500560 0.750806 0.500296 Pb
0.750887 0.248029 0.752410 Pb
1.000007 0.250487 -0.000154 Pb
0.250251 0.749438 0.750597 Pb
0.498153 0.752362 0.997776 Pb
0.250280 0.250327 0.750474 Pb
0.499847 0.250055 0.000412 Pb
0.002872 0.749483 0.249748 Pb
0.249790 0.750512 0.500616 Pb
0.999927 0.249674 0.249538 Pb
0.999974 0.749510 0.750094 Pb
0.249970 0.749042 0.999812 Pb
0.499530 0.753226 0.249344 Pb
0.750231 0.751769 0.500939 Pb
0.000200 0.250375 0.750240 Pb
0.250288 0.250691 -0.000151 Pb
0.750376 0.246964 0.500744 Pb
0.500047 0.750265 0.749937 Pb
0.750454 0.750872 0.999681 Pb
0.499106 0.249127 0.750187 Pb
0.750113 0.250128 0.000378 Pb
0.000224 -0.000050 0.249875 Pb
0.249773 0.999762 0.500332 Pb
1.002549 0.500789 0.249901 Pb
0.000171 0.999920 0.750254 Pb
0.249927 0.000130 0.999734 Pb
0.499474 0.000834 0.249522 Pb
0.750636 0.999297 0.500471 Pb
0.999802 0.499693 0.750039 Pb
0.250429 0.499943 0.000284 Pb
0.750188 0.500816 0.496578 Pb
0.500084 0.999889 0.750158 Pb
0.749908 0.000148 0.999964 Pb
0.500095 0.500322 0.748255 Pb
0.749886 0.500082 0.000500 Pb
0.750904 0.002289 0.249893 Pb
0.000193 0.999712 0.500004 Pb
0.747918 0.496821 0.252162 Pb
0.000929 0.498578 0.499823 Pb
0.750185 0.999633 0.750312 Pb
1.000012 0.999589 0.999993 Pb
0.249729 0.999654 0.249787 Pb
0.499417 0.998762 0.500194 Pb
0.750309 0.500307 0.748787 Pb
0.999813 0.500190 0.999629 Pb
0.250142 0.000543 0.750161 Pb
0.499888 1.000255 0.999866 Pb
0.250330 0.499631 0.750444 Pb
0.500730 0.499935 0.005091 Pb
0.984822 0.125058 0.230308 Br
0.233118 0.125326 0.482616 Br
0.983794 0.624324 0.229061 Br
0.234079 0.624395 0.481939 Br
0.985181 0.124979 0.731653 Br
0.234318 0.125323 0.981306 Br
0.482332 0.125142 0.226931 Br
0.735188 0.123589 0.480150 Br
0.984370 0.624569 0.729164 Br
0.234188 0.624286 0.978522 Br
0.501991 0.624748 0.242638 Br
0.484304 0.124703 0.730493 Br
0.734000 0.125538 0.981129 Br
0.731802 0.625451 0.984262 Br
0.229755 0.874456 0.233873 Br
0.477424 0.874377 0.485128 Br
0.235196 0.375483 0.233849 Br
0.232968 0.874820 0.735445 Br
0.477291 0.876042 0.981887 Br
0.738806 0.876620 0.233531 Br
0.980852 0.874249 0.483397 Br
0.229925 0.375067 0.735102 Br
0.481582 0.375448 0.987638 Br
0.720637 0.374609 0.237399 Br
0.977527 0.374635 0.485212 Br
0.731108 0.874580 0.735350 Br
0.980096 0.874594 0.984733 Br
0.979472 0.375339 0.983553 Br
0.773751 0.126335 0.266007 Br
0.020102 0.124782 0.515240 Br
0.753482 0.624084 0.267097 Br
0.015997 0.623479 0.516678 Br
0.770968 0.124067 0.768414 Br
0.017919 0.125066 0.015174 Br
0.268452 0.124625 0.265607 Br
0.514155 0.124181 0.517348 Br
0.770398 0.624599 0.764091 Br
0.020062 0.624714 0.015086 Br
0.270810 0.125349 0.765592 Br
0.519262 0.125147 0.014714 Br
0.270449 0.624427 0.767220 Br
0.514655 0.626131 0.013224 Br
0.016044 0.874440 0.268883 Br
0.265228 0.874779 0.520616 Br
0.016221 0.375308 0.267454 Br
0.016189 0.874519 0.768715 Br
0.264525 0.874659 0.017091 Br
0.515033 0.876779 0.269841 Br
0.768329 0.874567 0.522168 Br
0.016307 0.375174 0.770706 Br
0.266890 0.375103 0.021403 Br
0.750623 0.375202 0.515915 Br
0.516261 0.874826 0.769146 Br
0.765214 0.875486 0.020110 Br
0.519066 0.374841 0.762285 Br
0.766131 0.375670 0.019721 Br
0.874328 0.983124 0.223992 Br
0.123794 0.981917 0.474660 Br
0.866806 0.483975 0.227740 Br
0.123415 0.481799 0.477242 Br
0.873987 0.981985 0.724473 Br
0.123821 0.982223 0.974328 Br
0.373914 0.981915 0.224284 Br
0.623846 0.981753 0.475191 Br
0.873807 0.482200 0.721952 Br
0.124071 0.481697 0.976019 Br
0.379389 0.485483 0.226152 Br
0.374019 0.982459 0.724391 Br
0.623784 0.981852 0.974925 Br
0.624296 0.482633 0.975509 Br
0.974749 0.017545 0.373887 Br
0.224459 0.017815 0.623962 Br
0.976436 0.517919 0.374050 Br
0.225547 0.518087 0.623748 Br
0.974529 0.017588 0.873876 Br
0.224316 0.017631 0.123953 Br
0.474120 0.018150 0.373869 Br
0.724662 0.018285 0.623972 Br
0.973635 0.518612 0.873678 Br
0.228392 0.518438 0.125041 Br
0.474580 0.018193 0.873729 Br
0.724661 0.018245 0.124174 Br
0.478885 0.513811 0.873147 Br
0.722754 0.516762 0.125381 Br
0.026697 0.767394 0.126184 Br
0.274880 0.770002 0.376313 Br
0.025687 0.268182 0.126133 Br
0.025569 0.767690 0.625968 Br
0.276124 0.767164 0.876057 Br
0.521848 0.768290 0.124461 Br
0.773394 0.768042 0.376184 Br
0.025164 0.268051 0.625984 Br
0.276782 0.269211 0.876275 Br
0.525746 0.267994 0.126671 Br
0.776579 0.265916 0.376759 Br
0.526621 0.767248 0.625889 Br
0.775904 0.767718 0.875852 Br
0.776235 0.268022 0.877076 Br
0.125586 0.232597 0.274742 Br
0.373810 0.234823 0.524229 Br
0.127658 0.728721 0.276824 Br
0.126600 0.232104 0.775653 Br
0.376246 0.232235 0.025900 Br
0.626343 0.225913 0.276165 Br
0.876070 0.231735 0.526844 Br
0.126234 0.732010 0.775249 Br
0.375557 0.731728 0.025819 Br
0.875822 0.731857 0.523937 Br
0.626254 0.232544 0.774436 Br
0.876113 0.232941 0.026135 Br
0.626222 0.731769 0.775918 Br
0.875856 0.731011 0.026269 Br
0.876947 0.764711 0.224380 Br
0.124205 0.767464 0.474793 Br
0.873217 0.270485 0.224239 Br
0.122728 0.271338 0.474229 Br
0.873895 0.767831 0.724220 Br
0.123535 0.767694 0.974391 Br
0.374081 0.767973 0.224060 Br
0.624143 0.775628 0.475137 Br
0.874234 0.267657 0.724877 Br
0.123954 0.268116 0.974798 Br
0.374179 0.266549 0.225770 Br
0.374026 0.767028 0.723585 Br
0.623443 0.767818 0.976427 Br
0.623916 0.268027 0.974169 Br
0.974903 0.232053 0.373845 Br
0.223642 0.232249 0.624378 Br
0.975210 0.731547 0.373787 Br
0.224392 0.731934 0.623838 Br
0.974484 0.232247 0.873929 Br
0.224189 0.232075 0.123842 Br
0.474835 0.228449 0.373875 Br
0.726727 0.231325 0.625399 Br
0.973955 0.731523 0.873870 Br
0.225002 0.732017 0.124119 Br
0.474035 0.233296 0.874144 Br
0.724326 0.232102 0.124359 Br
0.473175 0.731958 0.872866 Br
0.727550 0.734960 0.123895 Br
0.126302 0.017888 0.275490 Br
0.375831 0.017564 0.525650 Br
0.125413 0.517918 0.273167 Br
0.126256 0.017848 0.775604 Br
0.376041 0.018049 0.025602 Br
0.626433 0.018381 0.274621 Br
0.876153 0.018128 0.525983 Br
0.126208 0.517912 0.774683 Br
0.376609 0.517456 0.027269 Br
0.867760 0.514206 0.523710 Br
0.626272 0.017960 0.775300 Br
0.876057 0.017544 0.025600 Br
0.626389 0.517812 0.773411 Br
0.876106 0.519357 0.026611 Br
0.025720 0.982065 0.126144 Br
0.274949 0.982372 0.376260 Br
0.025485 0.481953 0.126169 Br
0.025748 0.982121 0.626046 Br
0.275756 0.982786 0.876130 Br
0.525365 0.981550 0.126067 Br
0.776034 0.982383 0.376273 Br
0.022827 0.480653 0.625367 Br
0.276717 0.480586 0.876360 Br
0.527837 0.487270 0.130724 Br
0.782779 0.481544 0.375383 Br
0.525461 0.981911 0.625962 Br
0.775614 0.981771 0.876306 Br
0.774101 0.484345 0.874929 Br
0.383651 0.367769 0.357587 Cs
0.633152 0.369635 0.618124 Cs
0.614208 0.648440 0.377297 Cs
0.353000 0.624888 0.637598 Cs
0.402114 0.375928 0.611563 Cs
0.642983 0.358040 0.369891 Cs
0.613638 0.625215 0.646829 Cs
0.361055 0.635281 0.397219 Cs
0.249810 0.249416 0.249447 Pb
0.498000 0.247744 0.499761 Pb
0.500134 0.247840 0.249749 Pb
0.247364 0.250138 0.500749 Pb
0.504672 0.498796 0.268079 Pb
0.250902 0.499265 0.499885 Pb
0.255486 0.500306 0.249709 Pb
0.497524 0.503135 0.491433 Pb
0.484016 0.624991 0.730885 Br
0.734849 0.624871 0.478950 Br
0.735394 0.374254 0.738010 Br
0.494992 0.376273 0.481305 Br
0.274103 0.625134 0.264699 Br
0.530217 0.625066 0.505719 Br
0.514118 0.373410 0.274327 Br
0.267427 0.375707 0.521242 Br
0.374224 0.480812 0.723303 Br
0.445466 0.512366 0.374359 Br
0.721518 0.514598 0.619978 Br
0.522425 0.263962 0.625754 Br
0.271466 0.265161 0.376370 Br
0.627431 0.748879 0.264798 Br
0.376926 0.731179 0.526914 Br
0.374236 0.270043 0.723245 Br
0.623177 0.255505 0.480885 Br
0.475202 0.737708 0.373576 Br
0.724369 0.731702 0.623672 Br
0.381039 0.518065 0.524451 Br
0.526917 0.486050 0.619773 Br
0.271313 0.478527 0.376740 Br
0.607618 0.502794 0.351044 Br
