Cs8 Pb7 Br24
1.0
8.420018 0.000000 8.077981
0.000000 11.763808 0.000000
-8.420018 0.000000 8.077981
Cs Pb Br Pb
8 6 24 1
direct
0.293019 0.250093 0.228980 Cs
0.744878 0.249566 0.692508 Cs
0.692710 0.750088 0.288545 Cs
0.220553 0.749898 0.756564 Cs
0.307298 0.249918 0.711446 Cs
0.779426 0.250111 0.243451 Cs
0.706985 0.749906 0.771016 Cs
0.255120 0.750429 0.307486 Cs
-0.000009 0.000007 -0.000012 Pb
0.500003 -0.000002 -0.000013 Pb
-0.000032 0.000006 0.500001 Pb
0.500003 0.499999 -0.000004 Pb
-0.000021 0.500001 0.500004 Pb
-0.000003 0.500002 0.000001 Pb
0.459612 0.749995 0.964619 Br
0.980413 0.749995 0.447807 Br
0.936087 0.249972 0.966264 Br
0.493105 0.250070 0.472566 Br
0.063910 0.750024 0.033744 Br
0.506897 0.749914 0.527429 Br
0.540383 0.250004 0.035370 Br
0.019595 0.250010 0.552194 Br
0.246758 0.449276 0.949955 Br
0.750879 0.478455 0.449529 Br
0.453924 0.527430 0.246034 Br
0.950066 0.548720 0.749259 Br
0.545546 0.027158 0.753886 Br
0.050122 0.048423 0.250784 Br
0.753248 0.949778 0.049852 Br
0.249147 0.978422 0.550403 Br
0.246750 0.050225 0.950136 Br
0.750882 0.021574 0.449610 Br
0.454452 0.972834 0.246119 Br
0.949877 0.951581 0.749214 Br
0.753244 0.550723 0.050043 Br
0.249141 0.521557 0.550487 Br
0.546077 0.472569 0.753963 Br
0.049949 0.451282 0.250762 Br
0.500007 -0.250013 0.499996 Pb
