Cs8 Pb8 Br24
1.0
11.735352 0.000000 0.000000
0.000000 11.735352 0.000000
0.000000 0.000000 11.735352
Cs Pb Br
8 8 24
direct
0.250000 0.250000 0.250000 Cs
0.250000 0.250000 0.750000 Cs
0.250000 0.750000 0.250000 Cs
0.250000 0.750000 0.750000 Cs
0.750000 0.250000 0.250000 Cs
0.750000 0.250000 0.750000 Cs
0.750000 0.750000 0.250000 Cs
0.750000 0.750000 0.750000 Cs
0.000000 0.000000 0.000000 Pb
0.000000 0.000000 0.500000 Pb
0.000000 0.500000 0.000000 Pb
0.000000 0.500000 0.500000 Pb
0.500000 0.000000 0.000000 Pb
0.500000 0.000000 0.500000 Pb
0.500000 0.500000 0.000000 Pb
0.500000 0.500000 0.500000 Pb
0.977500 0.250000 0.025000 Br
0.977500 0.250000 0.475000 Br
0.022500 0.750000 0.975000 Br
0.022500 0.750000 0.525000 Br
0.522500 0.250000 0.975000 Br
0.522500 0.250000 0.525000 Br
0.477500 0.750000 0.025000 Br
0.477500 0.750000 0.475000 Br
0.025000 0.975000 0.250000 Br
0.975000 0.025000 0.750000 Br
0.975000 0.525000 0.250000 Br
0.025000 0.475000 0.750000 Br
0.475000 0.025000 0.250000 Br
0.525000 0.975000 0.750000 Br
0.525000 0.475000 0.250000 Br
0.475000 0.525000 0.750000 Br
0.250000 0.022500 0.975000 Br
0.250000 0.022500 0.525000 Br
0.250000 0.477500 0.025000 Br
0.250000 0.477500 0.475000 Br
0.750000 0.977500 0.025000 Br
0.750000 0.977500 0.475000 Br
0.750000 0.522500 0.975000 Br
0.750000 0.522500 0.525000 Br
