Cs4 Pb4 Br12                            
   1.0000000000000000     
     8.5884179498362574    0.0000000000000000    0.0000000000000000
     0.0000000000000000   11.8214458624860086    0.0000000000000000
     0.0000000000000000    0.0000000000000000    7.9031395406904918
   Cs   Pb   Br
     4     4    12
Direct
  0.0694842612152939  0.2500000000000000  0.4738861354053725
  0.4305157387847203  0.7500000000000000  0.9738861354053725
  0.5694842612152868  0.2500000000000000  0.0261138645946275
  0.9305157387847132  0.7500000000000000  0.5261138645946275
  0.0000000000000000  0.0000000000000000  0.0000000000000000
  0.5000000000000000  0.0000000000000000  0.5000000000000000
  0.5000000000000000  0.5000000000000000  0.5000000000000000
  0.0000000000000000  0.5000000000000000  0.0000000000000000
  0.5099920339234316  0.7500000000000000  0.4363048989636766
  0.9900079660765684  0.2500000000000000  0.9363048989636837
  0.0099920339234316  0.7500000000000000  0.0636951010363234
  0.4900079660765684  0.2500000000000000  0.5636951010363163
  0.3003400233657061  0.4660966793484960  0.1914690610505119
  0.1996599766343010  0.5339033206515040  0.6914690610505119
  0.8003400233657061  0.0339033206515040  0.3085309389494881
  0.6996599766342939  0.9660966793484960  0.8085309389494881
  0.3003400233657061  0.0339033206515040  0.1914690610505119
  0.1996599766343010  0.9660966793484960  0.6914690610505119
  0.6996599766342939  0.5339033206515040  0.8085309389494881
  0.8003400233657061  0.4660966793484960  0.3085309389494881

  0.00000000E+00  0.00000000E+00  0.00000000E+00
  0.00000000E+00  0.00000000E+00  0.00000000E+00
  0.00000000E+00  0.00000000E+00  0.00000000E+00
  0.00000000E+00  0.00000000E+00  0.00000000E+00
  0.00000000E+00  0.00000000E+00  0.00000000E+00
  0.00000000E+00  0.00000000E+00  0.00000000E+00
  0.00000000E+00  0.00000000E+00  0.00000000E+00
  0.00000000E+00  0.00000000E+00  0.00000000E+00
  0.00000000E+00  0.00000000E+00  0.00000000E+00
  0.00000000E+00  0.00000000E+00  0.00000000E+00
  0.00000000E+00  0.00000000E+00  0.00000000E+00
  0.00000000E+00  0.00000000E+00  0.00000000E+00
  0.00000000E+00  0.00000000E+00  0.00000000E+00
  0.00000000E+00  0.00000000E+00  0.00000000E+00
  0.00000000E+00  0.00000000E+00  0.00000000E+00
  0.00000000E+00  0.00000000E+00  0.00000000E+00
  0.00000000E+00  0.00000000E+00  0.00000000E+00
  0.00000000E+00  0.00000000E+00  0.00000000E+00
  0.00000000E+00  0.00000000E+00  0.00000000E+00
  0.00000000E+00  0.00000000E+00  0.00000000E+00
