Cs4 Pb4 Br12                            
   1.0000000000000000     
     8.5884179498362574    0.0000000000000000    0.0000000000000000
     0.0000000000000000   11.8214458624860086    0.0000000000000000
     0.0000000000000000    0.0000000000000000    7.9031395406904918
   Cs   Pb   Br
     4     4    12
Direct
  0.0694842612152961  0.2500000000000000  0.4738861354053736
  0.4305157387847182  0.7500000000000000  0.9738861354053734
  0.5694842612152888  0.2500000000000000  0.0261138645946265
  0.9305157387847112  0.7500000000000000  0.5261138645946266
  0.0000000000000000  0.0000000000000000  0.0000000000000000
  0.5000000000000000  0.0000000000000000  0.5000000000000000
  0.5000000000000000  0.5000000000000000  0.5000000000000000
  0.0000000000000000  0.5000000000000000  0.0000000000000000
  0.5099920339234292  0.7500000000000000  0.4363048989636801
  0.9900079660765708  0.2500000000000000  0.9363048989636802
  0.0099920339234293  0.7500000000000000  0.0636951010363199
  0.4900079660765707  0.2500000000000000  0.5636951010363198
  0.3003400233657079  0.4660966793484970  0.1914690610505140
  0.1996599766342992  0.5339033206515028  0.6914690610505141
  0.8003400233657080  0.0339033206515030  0.3085309389494860
  0.6996599766342920  0.9660966793484972  0.8085309389494859
  0.3003400233657079  0.0339033206515030  0.1914690610505140
  0.1996599766342992  0.9660966793484972  0.6914690610505141
  0.6996599766342920  0.5339033206515028  0.8085309389494859
  0.8003400233657080  0.4660966793484970  0.3085309389494860

  0.00000000E+00  0.00000000E+00  0.00000000E+00
  0.00000000E+00  0.00000000E+00  0.00000000E+00
  0.00000000E+00  0.00000000E+00  0.00000000E+00
  0.00000000E+00  0.00000000E+00  0.00000000E+00
  0.00000000E+00  0.00000000E+00  0.00000000E+00
  0.00000000E+00  0.00000000E+00  0.00000000E+00
  0.00000000E+00  0.00000000E+00  0.00000000E+00
  0.00000000E+00  0.00000000E+00  0.00000000E+00
  0.00000000E+00  0.00000000E+00  0.00000000E+00
  0.00000000E+00  0.00000000E+00  0.00000000E+00
  0.00000000E+00  0.00000000E+00  0.00000000E+00
  0.00000000E+00  0.00000000E+00  0.00000000E+00
  0.00000000E+00  0.00000000E+00  0.00000000E+00
  0.00000000E+00  0.00000000E+00  0.00000000E+00
  0.00000000E+00  0.00000000E+00  0.00000000E+00
  0.00000000E+00  0.00000000E+00  0.00000000E+00
  0.00000000E+00  0.00000000E+00  0.00000000E+00
  0.00000000E+00  0.00000000E+00  0.00000000E+00
  0.00000000E+00  0.00000000E+00  0.00000000E+00
  0.00000000E+00  0.00000000E+00  0.00000000E+00
