Cs7 Pb8 Br24
1.0
8.420018 0.000000 8.077981
0.000000 11.763808 0.000000
-8.420018 0.000000 8.077981
Cs Pb Br Cs
6 8 24 1
direct
0.273032 0.250000 0.206788 Cs
0.771625 0.250001 0.713108 Cs
0.204915 0.750000 0.760824 Cs
0.298924 0.249999 0.729151 Cs
0.786193 0.250000 0.222588 Cs
0.727444 0.750000 0.792858 Cs
-0.000686 -0.001658 0.000523 Pb
0.504404 -0.001684 0.495168 Pb
0.500185 -0.003334 0.000806 Pb
0.001432 0.000995 0.498564 Pb
0.500189 0.503335 0.000813 Pb
0.001431 0.499003 0.498566 Pb
-0.000684 0.501654 0.000526 Pb
0.504403 0.501688 0.495164 Pb
0.461722 0.750000 0.951400 Br
0.977918 0.749998 0.477506 Br
0.963678 0.250001 0.969300 Br
0.462492 0.250000 0.468910 Br
0.045611 0.750001 0.024657 Br
0.530875 0.750001 0.537564 Br
0.528735 0.249999 0.029368 Br
0.035600 0.249998 0.548771 Br
0.248135 0.463271 0.947577 Br
0.751118 0.448799 0.457197 Br
0.439558 0.525227 0.246278 Br
0.948348 0.534352 0.748778 Br
0.550116 0.034783 0.750780 Br
0.047369 0.043062 0.251952 Br
0.752259 0.965089 0.048853 Br
0.254387 0.973701 0.552474 Br
0.248135 0.036730 0.947578 Br
0.751118 0.051201 0.457197 Br
0.439558 0.974773 0.246278 Br
0.948351 0.965649 0.748777 Br
0.752259 0.534912 0.048852 Br
0.254387 0.526298 0.552474 Br
0.550115 0.465219 0.750781 Br
0.047365 0.456936 0.251953 Br
0.349838 0.750000 0.292265 Cs
