Cs8 Pb8 Br23                            
   1.0000000000000000     
     8.4564889999999995    0.0000000000000000    8.0403009999999995
     0.0000000000000000   11.7298469999999995    0.0000000000000000
    -8.4564889999999995    0.0000000000000000    8.0403009999999995
   Cs   Pb   Br
     8     8    23
Direct
  0.2659080000000031  0.2527889999999999  0.2042550000000034
  0.7703089999999975  0.2440629999999970  0.7319079999999971
  0.7057100000000034  0.7606219999999979  0.2452690000000004
  0.2116410000000002  0.7493860000000012  0.7793580000000020
  0.2985449999999972  0.2589029999999966  0.7387200000000007
  0.7903710000000004  0.2468000000000004  0.2184600000000003
  0.7343150000000023  0.7500849999999986  0.8067300000000017
  0.2298770000000019  0.7468179999999975  0.2781599999999997
  0.0026530000000022  0.0009230000000002  0.9985860000000031
  0.5003760000000028  0.0069159999999968  0.4962230000000005
  0.4970459999999974  0.0021720000000016  0.9972830000000030
  0.0041700000000020  0.0186629999999965  0.5026229999999998
  0.5004440000000017  0.5009030000000010  0.0006729999999990
  0.9791129999999981  0.4966440000000034  0.5014990000000026
  0.9999299999999991  0.5003049999999973  0.0029839999999979
  0.5076979999999978  0.4986949999999979  0.5003870000000035
  0.4741229999999987  0.7514290000000017  0.9690319999999986
  0.9792890000000014  0.2507370000000009  0.9724239999999966
  0.4535440000000008  0.2462299999999971  0.4702750000000009
  0.0222329999999999  0.7509399999999999  0.0321700000000007
  0.5242099999999965  0.2511209999999977  0.0337329999999980
  0.0423910000000021  0.2606070000000003  0.5421679999999967
  0.2479089999999999  0.4752969999999976  0.9552669999999992
  0.7479480000000009  0.4285799999999966  0.4603889999999993
  0.4596420000000023  0.5395929999999964  0.2502020000000016
  0.9511409999999998  0.5346690000000009  0.7461399999999969
  0.5462770000000035  0.0290790000000030  0.7489479999999986
  0.0480519999999984  0.0303929999999966  0.2534429999999972
  0.7533150000000006  0.9809989999999971  0.0372569999999968
  0.2497219999999984  0.9539449999999974  0.5426649999999995
  0.2482990000000029  0.0310149999999965  0.9434550000000002
  0.7489539999999977  0.0314139999999981  0.4471830000000026
  0.4495769999999979  0.9647569999999988  0.2474959999999982
  0.9536790000000011  0.9625830000000022  0.7441150000000007
  0.7525490000000019  0.5264469999999974  0.0509070000000023
  0.2616310000000013  0.5523319999999998  0.5430959999999985
  0.5536299999999983  0.4689529999999991  0.7525490000000019
  0.0448200000000014  0.4697159999999982  0.2551989999999975
  0.7319949999999977  0.7244770000000003  0.5025800000000018

  0.00000000E+00  0.00000000E+00  0.00000000E+00
  0.00000000E+00  0.00000000E+00  0.00000000E+00
  0.00000000E+00  0.00000000E+00  0.00000000E+00
  0.00000000E+00  0.00000000E+00  0.00000000E+00
  0.00000000E+00  0.00000000E+00  0.00000000E+00
  0.00000000E+00  0.00000000E+00  0.00000000E+00
  0.00000000E+00  0.00000000E+00  0.00000000E+00
  0.00000000E+00  0.00000000E+00  0.00000000E+00
  0.00000000E+00  0.00000000E+00  0.00000000E+00
  0.00000000E+00  0.00000000E+00  0.00000000E+00
  0.00000000E+00  0.00000000E+00  0.00000000E+00
  0.00000000E+00  0.00000000E+00  0.00000000E+00
  0.00000000E+00  0.00000000E+00  0.00000000E+00
  0.00000000E+00  0.00000000E+00  0.00000000E+00
  0.00000000E+00  0.00000000E+00  0.00000000E+00
  0.00000000E+00  0.00000000E+00  0.00000000E+00
  0.00000000E+00  0.00000000E+00  0.00000000E+00
  0.00000000E+00  0.00000000E+00  0.00000000E+00
  0.00000000E+00  0.00000000E+00  0.00000000E+00
  0.00000000E+00  0.00000000E+00  0.00000000E+00
  0.00000000E+00  0.00000000E+00  0.00000000E+00
  0.00000000E+00  0.00000000E+00  0.00000000E+00
  0.00000000E+00  0.00000000E+00  0.00000000E+00
  0.00000000E+00  0.00000000E+00  0.00000000E+00
  0.00000000E+00  0.00000000E+00  0.00000000E+00
  0.00000000E+00  0.00000000E+00  0.00000000E+00
  0.00000000E+00  0.00000000E+00  0.00000000E+00
  0.00000000E+00  0.00000000E+00  0.00000000E+00
  0.00000000E+00  0.00000000E+00  0.00000000E+00
  0.00000000E+00  0.00000000E+00  0.00000000E+00
  0.00000000E+00  0.00000000E+00  0.00000000E+00
  0.00000000E+00  0.00000000E+00  0.00000000E+00
  0.00000000E+00  0.00000000E+00  0.00000000E+00
  0.00000000E+00  0.00000000E+00  0.00000000E+00
  0.00000000E+00  0.00000000E+00  0.00000000E+00
  0.00000000E+00  0.00000000E+00  0.00000000E+00
  0.00000000E+00  0.00000000E+00  0.00000000E+00
  0.00000000E+00  0.00000000E+00  0.00000000E+00
  0.00000000E+00  0.00000000E+00  0.00000000E+00
