Cs8 Pb8 Br23
1.0
8.456489 0.000000 8.040301
0.000000 11.729847 0.000000
-8.456489 0.000000 8.040301
Cs Pb Br
8 8 23
direct
0.265908 0.252789 0.204255 Cs
0.770309 0.244063 0.731908 Cs
0.705710 0.760622 0.245269 Cs
0.211641 0.749386 0.779358 Cs
0.298545 0.258903 0.738720 Cs
0.790371 0.246800 0.218460 Cs
0.734315 0.750085 0.806730 Cs
0.229877 0.746818 0.278160 Cs
0.002653 0.000923 -0.001414 Pb
0.500376 0.006916 0.496223 Pb
0.497046 0.002172 -0.002717 Pb
0.004170 0.018663 0.502623 Pb
0.500444 0.500903 0.000673 Pb
-0.020887 0.496644 0.501499 Pb
-0.000070 0.500305 0.002984 Pb
0.507698 0.498695 0.500387 Pb
0.474123 0.751429 0.969032 Br
0.979289 0.250737 0.972424 Br
0.453544 0.246230 0.470275 Br
0.022233 0.750940 0.032170 Br
0.524210 0.251121 0.033733 Br
0.042391 0.260607 0.542168 Br
0.247909 0.475297 0.955267 Br
0.747948 0.428580 0.460389 Br
0.459642 0.539593 0.250202 Br
0.951141 0.534669 0.746140 Br
0.546277 0.029079 0.748948 Br
0.048052 0.030393 0.253443 Br
0.753315 0.980999 0.037257 Br
0.249722 0.953945 0.542665 Br
0.248299 0.031015 0.943455 Br
0.748954 0.031414 0.447183 Br
0.449577 0.964757 0.247496 Br
0.953679 0.962583 0.744115 Br
0.752549 0.526447 0.050907 Br
0.261631 0.552332 0.543096 Br
0.553630 0.468953 0.752549 Br
0.044820 0.469716 0.255199 Br
0.731995 0.724477 0.502580 Br
