Cs8 Pb7 Br24
1.0
8.420018 0.000000 8.077981
0.000000 11.763808 0.000000
-8.420018 0.000000 8.077981
Cs Pb Br Pb
8 6 24 1
direct
0.256357 0.263627 0.220311 Cs
0.788554 0.265226 0.692946 Cs
0.728811 0.741302 0.293116 Cs
0.192866 0.726000 0.744480 Cs
0.271189 0.258699 0.706879 Cs
0.807130 0.274000 0.255515 Cs
0.743637 0.736378 0.779694 Cs
0.211452 0.734773 0.307049 Cs
-0.000002 0.000000 -0.000002 Pb
0.500004 0.000000 0.500001 Pb
0.500000 -0.000002 -0.000001 Pb
-0.000001 -0.000004 0.499998 Pb
0.500007 0.499998 0.000002 Pb
-0.000006 0.499996 0.000062 Pb
0.466240 0.750528 0.936281 Br
0.972544 0.752043 0.492932 Br
0.947644 0.248049 0.980981 Br
0.464756 0.247742 0.459271 Br
0.052351 0.751950 0.019005 Br
0.535255 0.752256 0.540736 Br
0.533755 0.249479 0.063716 Br
0.027453 0.247946 0.507074 Br
0.250312 0.454491 0.950067 Br
0.746237 0.479756 0.465043 Br
0.452845 0.548329 0.245873 Br
0.956487 0.521369 0.752099 Br
0.552614 0.052419 0.752254 Br
0.057393 0.021422 0.250317 Br
0.751713 0.948424 0.050344 Br
0.254020 0.965716 0.556390 Br
0.248285 0.051577 0.949650 Br
0.745982 0.034280 0.443613 Br
0.447394 0.947583 0.247746 Br
0.942600 0.978574 0.749671 Br
0.749691 0.545511 0.049921 Br
0.253775 0.520249 0.534969 Br
0.547165 0.451673 0.754125 Br
0.043496 0.478638 0.247870 Br
-0.500004 0.500001 0.500001 Pb
