Cs4 Pb4 Br12                            
   1.0000000000000000     
     8.7568183017938299    0.0000000000000000    0.0000000000000000
     0.0000000000000000   12.2343600960251990    0.0000000000000000
     0.0000000000000000    0.0000000000000000    7.6202381905260159
   Cs   Pb   Br
     4     4    12
Direct
  0.0763099274675625  0.2500000000000000  0.4671649955106076
  0.4236900725324375  0.7500000000000000  0.9671649955106076
  0.5763099274675625  0.2500000000000000  0.0328350044893924
  0.9236900725324375  0.7500000000000000  0.5328350044893924
  0.0000000000000000  0.0000000000000000  0.0000000000000000
  0.5000000000000000  0.0000000000000000  0.5000000000000000
  0.5000000000000000  0.5000000000000000  0.5000000000000000
  0.0000000000000000  0.5000000000000000  0.0000000000000000
  0.5072175891111428  0.7500000000000000  0.4526743247880276
  0.9927824108888572  0.2500000000000000  0.9526743247880276
  0.0072175891111428  0.7500000000000000  0.0473256752119724
  0.4927824108888572  0.2500000000000000  0.5473256752119724
  0.3057253373378970  0.4684075797438183  0.1790387176628627
  0.1942746626621030  0.5315924202561817  0.6790387176628627
  0.8057253373378970  0.0315924202561817  0.3209612823371373
  0.6942746626621030  0.9684075797438183  0.8209612823371373
  0.3057253373378970  0.0315924202561817  0.1790387176628627
  0.1942746626621030  0.9684075797438183  0.6790387176628627
  0.6942746626621030  0.5315924202561817  0.8209612823371373
  0.8057253373378970  0.4684075797438183  0.3209612823371373

  0.00000000E+00  0.00000000E+00  0.00000000E+00
  0.00000000E+00  0.00000000E+00  0.00000000E+00
  0.00000000E+00  0.00000000E+00  0.00000000E+00
  0.00000000E+00  0.00000000E+00  0.00000000E+00
  0.00000000E+00  0.00000000E+00  0.00000000E+00
  0.00000000E+00  0.00000000E+00  0.00000000E+00
  0.00000000E+00  0.00000000E+00  0.00000000E+00
  0.00000000E+00  0.00000000E+00  0.00000000E+00
  0.00000000E+00  0.00000000E+00  0.00000000E+00
  0.00000000E+00  0.00000000E+00  0.00000000E+00
  0.00000000E+00  0.00000000E+00  0.00000000E+00
  0.00000000E+00  0.00000000E+00  0.00000000E+00
  0.00000000E+00  0.00000000E+00  0.00000000E+00
  0.00000000E+00  0.00000000E+00  0.00000000E+00
  0.00000000E+00  0.00000000E+00  0.00000000E+00
  0.00000000E+00  0.00000000E+00  0.00000000E+00
  0.00000000E+00  0.00000000E+00  0.00000000E+00
  0.00000000E+00  0.00000000E+00  0.00000000E+00
  0.00000000E+00  0.00000000E+00  0.00000000E+00
  0.00000000E+00  0.00000000E+00  0.00000000E+00
