Cs Pb Br                                
   1.0000000000000000     
     8.4200180000000007    0.0000000000000000    8.0779809999999994
     0.0000000000000000   11.7638079999999992    0.0000000000000000
    -8.4200180000000007    0.0000000000000000    8.0779809999999994
   Cs   Pb   Br
     8     8    24
Selective dynamics
Direct
  0.2721250000000026  0.2500000000000000  0.2082359999999994   F   F   F
  0.8097351458303521  0.2436751367744705  0.6377395255806775   T   T   T
  0.8100755394981078  0.6168913778049827  0.1871325245044702   T   T   T
  0.2280838824084626  0.6808862005149123  0.6700027511829560   T   T   T
  0.2556135240617721  0.1258132154804912  0.6677901134737141   T   T   T
  0.7490801734287089  0.1342432125655222  0.1766643024842978   T   T   T
  0.7643560591030223  0.7503305546081833  0.6501691493658370   T   T   T
  0.2303031564712015  0.7528891202500461  0.1359949625090238   T   T   T
  0.9772485829089845  0.9831211694256154  0.8625143064127982   T   T   T
  0.4688177884847704  0.8913273571182643  0.3611908717844585   T   T   T
  0.5046148156457093  0.9982164169120438  0.9132641339781955   T   T   T
  0.9734085061559057  0.9389999532405469  0.3489607366115735   T   T   T
  0.5255098824746085  0.4974260847625445  0.9473451152006120   T   T   T
  0.0062694310607228  0.4471727788767552  0.4301414732659765   T   T   T
  0.0313627210425622  0.4744836079509440  0.9325245109404179   T   T   T
  0.4950585176764974  0.4310466924729894  0.4595189026553967   T   T   T
  0.5752285623645790  0.7499727754715551  0.0168920400512249   T   T   T
  0.0476547845381674  0.6998126275961596  0.4009188837747359   T   T   T
  0.1108558935576127  0.2165736721259535  0.9576920111372402   T   T   T
  0.5323748392443477  0.1644081220390348  0.4394874313923935   T   T   T
  0.9631046019652132  0.7347388693853887  0.9234510756813350   T   T   T
  0.4578152961917255  0.6527827198200171  0.3308072086354628   T   T   T
  0.4864058153209285  0.2474488384952451  0.8589168801677829   T   T   T
  0.9661163722440733  0.1907022669855110  0.3722516722388534   T   T   T
  0.2709494432028379  0.5251798211457555  0.9380283072849949   T   T   T
  0.7284203840818790  0.4832724588587354  0.4507277353010082   T   T   T
  0.5519628930363822  0.4085020353614794  0.1825145633107397   T   T   T
  0.9963972992587671  0.4980306725088468  0.6954769417339435   T   T   T
  0.4651617509971757  0.8664957446037889  0.6208353646050924   T   T   T
  0.9792696361616890  0.9852369505999192  0.1078532005007560   T   T   T
  0.7281936592040381  0.0367129668191808  0.8519316679942861   T   T   T
  0.2087130822477334  0.0018002208952481  0.3678955075257520   T   T   T
  0.2382136959473158  0.9389007554708400  0.8925691321426115   T   T   T
  0.7369025098846862  0.8897371915680452  0.3601172193205286   T   T   T
  0.4601656846933579  0.0420980015341925  0.1423451796546615   T   T   T
  0.9797250337460071  0.9727414594630233  0.6059536698652721   T   T   T
  0.7834033621546084  0.3952199974304591  0.9600929604547872   T   T   T
  0.2615107455611749  0.3603638505022531  0.4992808020688386   T   T   T
  0.5040195151088014  0.5085536452989814  0.7037272885217831   T   T   T
  0.0795140449254959  0.4856809324338727  0.1820139577233917   T   T   T

  0.00000000E+00  0.00000000E+00  0.00000000E+00
  0.00000000E+00  0.00000000E+00  0.00000000E+00
  0.00000000E+00  0.00000000E+00  0.00000000E+00
  0.00000000E+00  0.00000000E+00  0.00000000E+00
  0.00000000E+00  0.00000000E+00  0.00000000E+00
  0.00000000E+00  0.00000000E+00  0.00000000E+00
  0.00000000E+00  0.00000000E+00  0.00000000E+00
  0.00000000E+00  0.00000000E+00  0.00000000E+00
  0.00000000E+00  0.00000000E+00  0.00000000E+00
  0.00000000E+00  0.00000000E+00  0.00000000E+00
  0.00000000E+00  0.00000000E+00  0.00000000E+00
  0.00000000E+00  0.00000000E+00  0.00000000E+00
  0.00000000E+00  0.00000000E+00  0.00000000E+00
  0.00000000E+00  0.00000000E+00  0.00000000E+00
  0.00000000E+00  0.00000000E+00  0.00000000E+00
  0.00000000E+00  0.00000000E+00  0.00000000E+00
  0.00000000E+00  0.00000000E+00  0.00000000E+00
  0.00000000E+00  0.00000000E+00  0.00000000E+00
  0.00000000E+00  0.00000000E+00  0.00000000E+00
  0.00000000E+00  0.00000000E+00  0.00000000E+00
  0.00000000E+00  0.00000000E+00  0.00000000E+00
  0.00000000E+00  0.00000000E+00  0.00000000E+00
  0.00000000E+00  0.00000000E+00  0.00000000E+00
  0.00000000E+00  0.00000000E+00  0.00000000E+00
  0.00000000E+00  0.00000000E+00  0.00000000E+00
  0.00000000E+00  0.00000000E+00  0.00000000E+00
  0.00000000E+00  0.00000000E+00  0.00000000E+00
  0.00000000E+00  0.00000000E+00  0.00000000E+00
  0.00000000E+00  0.00000000E+00  0.00000000E+00
  0.00000000E+00  0.00000000E+00  0.00000000E+00
  0.00000000E+00  0.00000000E+00  0.00000000E+00
  0.00000000E+00  0.00000000E+00  0.00000000E+00
  0.00000000E+00  0.00000000E+00  0.00000000E+00
  0.00000000E+00  0.00000000E+00  0.00000000E+00
  0.00000000E+00  0.00000000E+00  0.00000000E+00
  0.00000000E+00  0.00000000E+00  0.00000000E+00
  0.00000000E+00  0.00000000E+00  0.00000000E+00
  0.00000000E+00  0.00000000E+00  0.00000000E+00
  0.00000000E+00  0.00000000E+00  0.00000000E+00
  0.00000000E+00  0.00000000E+00  0.00000000E+00
