Cs Pb Br 
 1.0000000000000000
     8.4200180000000007    0.0000000000000000    8.0779809999999994
     0.0000000000000000   11.7638079999999992    0.0000000000000000
    -8.4200180000000007    0.0000000000000000    8.0779809999999994
 Cs  Pb  Br 
   8   8  24
Selective dynamics
Cartesian
  0.5379465300020001  2.9409519999999998  3.8803470311410000   F   F   F
  1.4482062184234223  2.8665475233885784 11.6926728936395055   T   T   T
  5.2451913992207349  7.2569917253533021  8.0554277940595984   T   T   T
 -3.7209648296208608  8.0098145327069670  7.2547267625054745   T   T   T
 -3.4705343020271746  1.4800425107751327  7.4592370393425167   T   T   T
  4.8197519368376600  1.5792113779239907  7.4781462872802171   T   T   T
  0.9614558353514823  8.8267445809441636 11.4265077580325229   T   T   T
  0.7940766907090009  8.8568430559104581  2.9589492454579784   T   T   T
  0.9660646733148606 -0.1985593221415999 -1.2943923355535223   T   T   T
  0.9062205759011090 -1.2784041057133035  6.7047941874902852   T   T   T
 -3.4408346160472107 -0.0209817289987736 11.4535992153618604   T   T   T
 -3.1621565403768481 -0.7175928380692121  2.6040926180600747   T   T   T
 -3.5518602525871334  5.8516249553382762 11.8976946869755249   T   T   T
 -3.5690102250649876  5.2604547135325816  3.5253189933438867   T   T   T
  0.8322195081478428  5.5817340630821430 -0.2917182538989048   T   T   T
  0.2992441981907247  5.0707505292873165  7.7110582644700489   T   T   T
 -3.7188144320641570  8.8225357358744798 12.8611199760234598   T   T   T
  5.4455279256742788  8.2324613870167358 11.7015505697319409   T   T   T
  1.2896426469294728  2.5477310967446303 16.7096906717148244   T   T   T
  0.7821136460868400  1.9340655813078109  7.8506849568204524   T   T   T
  0.3338834050736901  8.6433269895867504 -0.9164010805290562   T   T   T
  1.0694103833693280  7.6792105816804801  6.3704776101664233   T   T   T
  5.2834681287903003  2.9109406258810595  2.7895101730266121   T   T   T
 -3.4196665363914471  2.2433848539822581  2.7333306343402053   T   T   T
 -5.6168160429913288  6.1781145814330305  9.7660992978634127   T   T   T
  2.3381771012025818  5.6851244177020526  9.5251361045606799   T   T   T
  3.1107615863598306  4.8055395116016282  5.9330949373003952   T   T   T
  2.5337548269254451  5.8587372095049481 13.6669279731285300   T   T   T
 -1.3107746287037394 -1.5705184276640205  8.7726640658899271   T   T   T
 -1.0826759262391321 -0.1736696786370678  0.7037766192253258   T   T   T
  7.3781417387019852 12.1956922927712128  4.6862413707268713   T   T   T
 -1.3403188861245272 11.7849854529692966  4.6578332326270040   T   T   T
 -5.5096845511622128 -0.7187597815861231  9.1344422004366930   T   T   T
  3.1725389286854440 -1.2971105079342955  8.8617045291448573   T   T   T
  2.6760543731948623 12.2590408072319121  4.8670713144968758   T   T   T
  3.1471616117602963 11.4431437627627659 12.8090824398765513   T   T   T
  6.9322884018997399  4.6492921675324386  6.0059491676086063   T   T   T
 -2.0020281556555184  4.2392511474491945  6.1456596667158445   T   T   T
 -1.6815430468772024  5.9825274409973535  9.7561557325385735   T   T   T
 -0.8630511107567472  5.7134572384130573  2.1126182363656403   T   T   T
