Cs8 Pb8 Br23                            
   1.0000000000000000     
     8.4564889999999995    0.0000000000000000    8.0403009999999995
     0.0000000000000000   11.7298469999999995    0.0000000000000000
    -8.4564889999999995    0.0000000000000000    8.0403009999999995
   Cs   Pb   Br
     8     8    23
Direct
  0.2764269999999982  0.2484180000000009  0.1900479999999973
  0.7712730000000008  0.2252080000000021  0.7573900000000009
  0.7024559999999980  0.7683310000000034  0.2519089999999977
  0.2139650000000017  0.7563549999999992  0.7846159999999998
  0.2449610000000035  0.2364880000000014  0.7278499999999966
  0.8052429999999973  0.2440009999999972  0.2287800000000004
  0.7351299999999981  0.7635410000000036  0.7535179999999997
  0.2270109999999974  0.7515989999999988  0.3046190000000024
  0.0105569999999986  0.9976899999999986  0.0076030000000031
  0.4873199999999969  0.0035250000000033  0.4930220000000034
  0.5048400000000015  0.9992220000000032  0.9940899999999999
  0.9899089999999973  0.9973859999999988  0.4999430000000018
  0.5114250000000027  0.4992889999999974  0.9923179999999974
  0.9967200000000034  0.5016689999999997  0.5119529999999983
  0.0107610000000022  0.5038789999999977  0.0112790000000018
  0.4748400000000004  0.4988880000000009  0.4859289999999987
  0.4958280000000030  0.7472350000000034  0.9494910000000019
  0.9490509999999972  0.7472289999999973  0.4636550000000028
  0.9956809999999976  0.2512839999999983  0.9795879999999997
  0.4282499999999985  0.2536410000000018  0.4747249999999994
  0.0452810000000028  0.7508690000000016  0.0447750000000013
  0.5175040000000024  0.7500530000000012  0.5087109999999981
  0.5450810000000033  0.2499170000000035  0.0234480000000019
  0.9867270000000019  0.2518889999999985  0.5373760000000019
  0.2636609999999990  0.4696489999999969  0.9439339999999987
  0.4688080000000028  0.5308700000000002  0.2293689999999984
  0.9602190000000022  0.5408529999999985  0.7610600000000005
  0.5377489999999980  0.0281439999999975  0.7458790000000022
  0.0560789999999969  0.0362000000000009  0.2572440000000000
  0.7609640000000013  0.9827310000000011  0.0375209999999981
  0.2408259999999984  0.9610460000000032  0.5513300000000001
  0.2562989999999985  0.0284699999999987  0.9497550000000032
  0.7359379999999973  0.0296779999999970  0.4490260000000035
  0.4432589999999976  0.9686149999999998  0.2411620000000028
  0.9631240000000005  0.9704130000000006  0.7513039999999975
  0.7652920000000023  0.5234299999999976  0.0599149999999966
  0.2370909999999995  0.5313019999999966  0.5709850000000003
  0.0618699999999990  0.4646010000000018  0.2684720000000027
  0.6615839999999977  0.4738929999999968  0.6239419999999996

  0.00000000E+00  0.00000000E+00  0.00000000E+00
  0.00000000E+00  0.00000000E+00  0.00000000E+00
  0.00000000E+00  0.00000000E+00  0.00000000E+00
  0.00000000E+00  0.00000000E+00  0.00000000E+00
  0.00000000E+00  0.00000000E+00  0.00000000E+00
  0.00000000E+00  0.00000000E+00  0.00000000E+00
  0.00000000E+00  0.00000000E+00  0.00000000E+00
  0.00000000E+00  0.00000000E+00  0.00000000E+00
  0.00000000E+00  0.00000000E+00  0.00000000E+00
  0.00000000E+00  0.00000000E+00  0.00000000E+00
  0.00000000E+00  0.00000000E+00  0.00000000E+00
  0.00000000E+00  0.00000000E+00  0.00000000E+00
  0.00000000E+00  0.00000000E+00  0.00000000E+00
  0.00000000E+00  0.00000000E+00  0.00000000E+00
  0.00000000E+00  0.00000000E+00  0.00000000E+00
  0.00000000E+00  0.00000000E+00  0.00000000E+00
  0.00000000E+00  0.00000000E+00  0.00000000E+00
  0.00000000E+00  0.00000000E+00  0.00000000E+00
  0.00000000E+00  0.00000000E+00  0.00000000E+00
  0.00000000E+00  0.00000000E+00  0.00000000E+00
  0.00000000E+00  0.00000000E+00  0.00000000E+00
  0.00000000E+00  0.00000000E+00  0.00000000E+00
  0.00000000E+00  0.00000000E+00  0.00000000E+00
  0.00000000E+00  0.00000000E+00  0.00000000E+00
  0.00000000E+00  0.00000000E+00  0.00000000E+00
  0.00000000E+00  0.00000000E+00  0.00000000E+00
  0.00000000E+00  0.00000000E+00  0.00000000E+00
  0.00000000E+00  0.00000000E+00  0.00000000E+00
  0.00000000E+00  0.00000000E+00  0.00000000E+00
  0.00000000E+00  0.00000000E+00  0.00000000E+00
  0.00000000E+00  0.00000000E+00  0.00000000E+00
  0.00000000E+00  0.00000000E+00  0.00000000E+00
  0.00000000E+00  0.00000000E+00  0.00000000E+00
  0.00000000E+00  0.00000000E+00  0.00000000E+00
  0.00000000E+00  0.00000000E+00  0.00000000E+00
  0.00000000E+00  0.00000000E+00  0.00000000E+00
  0.00000000E+00  0.00000000E+00  0.00000000E+00
  0.00000000E+00  0.00000000E+00  0.00000000E+00
  0.00000000E+00  0.00000000E+00  0.00000000E+00
