Cs8 Pb8 Br23
1.0
8.456489 0.000000 8.040301
0.000000 11.729847 0.000000
-8.456489 0.000000 8.040301
Cs Pb Br
8 8 23
direct
0.276427 0.248418 0.190048 Cs
0.771273 0.225208 0.757390 Cs
0.702456 0.768331 0.251909 Cs
0.213965 0.756355 0.784616 Cs
0.244961 0.236488 0.727850 Cs
0.805243 0.244001 0.228780 Cs
0.735130 0.763541 0.753518 Cs
0.227011 0.751599 0.304619 Cs
0.010557 -0.002310 0.007603 Pb
0.487320 0.003525 0.493022 Pb
0.504840 -0.000778 -0.005910 Pb
-0.010091 -0.002614 0.499943 Pb
0.511425 0.499289 -0.007682 Pb
-0.003280 0.501669 0.511953 Pb
0.010761 0.503879 0.011279 Pb
0.474840 0.498888 0.485929 Pb
0.495828 0.747235 0.949491 Br
0.949051 0.747229 0.463655 Br
0.995681 0.251284 0.979588 Br
0.428250 0.253641 0.474725 Br
0.045281 0.750869 0.044775 Br
0.517504 0.750053 0.508711 Br
0.545081 0.249917 0.023448 Br
-0.013273 0.251889 0.537376 Br
0.263661 0.469649 0.943934 Br
0.468808 0.530870 0.229369 Br
0.960219 0.540853 0.761060 Br
0.537749 0.028144 0.745879 Br
0.056079 0.036200 0.257244 Br
0.760964 0.982731 0.037521 Br
0.240826 0.961046 0.551330 Br
0.256299 0.028470 0.949755 Br
0.735938 0.029678 0.449026 Br
0.443259 0.968615 0.241162 Br
0.963124 0.970413 0.751304 Br
0.765292 0.523430 0.059915 Br
0.237091 0.531302 0.570985 Br
0.061870 0.464601 0.268472 Br
0.661584 0.473893 0.623942 Br
