Cs64 Pb64 Br191
1.0
16.840035 0.000000 16.155961
0.000000 23.527616 0.000000
-16.840035 0.000000 16.155961
Cs Pb Br Cs Pb Br
56 56 168 8 8 23
direct
0.886343 0.874942 0.353127 Cs
0.136428 0.875076 0.605608 Cs
0.888690 0.372136 0.355247 Cs
0.135721 0.375406 0.604220 Cs
0.886321 0.875036 0.853082 Cs
0.135975 0.875004 0.102999 Cs
0.385387 0.876116 0.353409 Cs
0.636990 0.875595 0.604971 Cs
0.885328 0.375505 0.852191 Cs
0.137070 0.374799 0.104164 Cs
0.384417 0.875217 0.850304 Cs
0.636878 0.874816 0.106077 Cs
0.388931 0.375055 0.853007 Cs
0.634440 0.374966 0.099608 Cs
0.104008 0.125057 0.385748 Cs
0.354046 0.125599 0.635404 Cs
0.103238 0.624700 0.389076 Cs
0.103498 0.124959 0.886014 Cs
0.351232 0.124923 0.135309 Cs
0.601931 0.121471 0.388659 Cs
0.854693 0.124500 0.638092 Cs
0.103552 0.625002 0.885479 Cs
0.364333 0.626564 0.138677 Cs
0.854231 0.623328 0.632705 Cs
0.604009 0.125053 0.885546 Cs
0.854588 0.125087 0.135251 Cs
0.602576 0.624593 0.885546 Cs
0.850448 0.626105 0.136767 Cs
0.895995 0.874564 0.114458 Cs
0.146157 0.875028 0.364185 Cs
0.898203 0.374800 0.111899 Cs
0.146779 0.375074 0.363577 Cs
0.899074 0.875056 0.614655 Cs
0.146759 0.874955 0.863814 Cs
0.394193 0.875705 0.112055 Cs
0.648451 0.878642 0.361514 Cs
0.887653 0.374498 0.610642 Cs
0.146572 0.375057 0.864298 Cs
0.396427 0.373872 0.113782 Cs
0.395699 0.875057 0.614537 Cs
0.646339 0.874874 0.864194 Cs
0.645994 0.375532 0.863347 Cs
0.113830 0.124838 0.145222 Cs
0.362471 0.124301 0.396857 Cs
0.114482 0.625101 0.143066 Cs
0.113934 0.124897 0.646575 Cs
0.363855 0.125059 0.896428 Cs
0.613867 0.124745 0.145141 Cs
0.865133 0.124519 0.397124 Cs
0.114001 0.624832 0.645666 Cs
0.365160 0.622775 0.896597 Cs
0.614777 0.632332 0.132920 Cs
0.862976 0.625094 0.392780 Cs
0.613610 0.124915 0.645088 Cs
0.864641 0.124891 0.897701 Cs
0.861884 0.625163 0.896357 Cs
0.751869 0.751703 0.249741 Pb
0.999941 0.750090 0.500005 Pb
0.749839 0.249644 0.249788 Pb
1.000297 0.249601 0.500536 Pb
0.750131 0.749818 0.749413 Pb
0.999938 0.749944 0.999652 Pb
0.249819 0.749724 0.249725 Pb
0.500196 0.751081 0.500201 Pb
0.750549 0.248956 0.750816 Pb
1.000017 0.250205 0.999571 Pb
0.250184 0.749353 0.750232 Pb
0.497764 0.752804 0.997154 Pb
0.250164 0.250505 0.750126 Pb
0.499945 0.249594 0.000016 Pb
0.001994 0.749325 0.249949 Pb
0.249860 0.750433 0.500505 Pb
0.999931 0.249736 0.249718 Pb
0.999880 0.749413 0.749935 Pb
0.249779 0.749411 0.999661 Pb
0.499508 0.753402 0.249434 Pb
0.750236 0.751736 0.500643 Pb
0.000217 0.250491 0.750025 Pb
0.250060 0.250425 0.999674 Pb
0.750520 0.247105 0.500598 Pb
0.500011 0.750261 0.749644 Pb
0.750436 0.751033 0.998713 Pb
0.499354 0.249352 0.749912 Pb
0.750097 0.250144 -0.000075 Pb
0.000175 0.999896 0.249895 Pb
0.249823 0.999915 0.500255 Pb
0.003819 0.500547 0.249998 Pb
0.000136 0.999882 0.750171 Pb
0.249914 0.000135 0.999711 Pb
0.499549 0.000998 0.249557 Pb
0.750557 0.999432 0.500409 Pb
0.999883 0.499774 0.749805 Pb
0.250248 0.500090 0.999918 Pb
0.744850 0.500802 0.494518 Pb
0.500039 0.999932 0.750057 Pb
0.749952 0.000244 0.999815 Pb
0.500467 0.499959 0.747300 Pb
0.750263 0.500029 0.999292 Pb
0.750795 0.001767 0.249969 Pb
0.000162 0.999762 0.500010 Pb
0.754363 0.496248 0.248132 Pb
0.999824 0.499146 0.500021 Pb
0.750124 -0.000099 0.750153 Pb
0.999934 0.999660 0.999904 Pb
0.249794 0.999672 0.249883 Pb
0.499492 0.998884 0.500172 Pb
0.750011 0.500320 0.747252 Pb
0.999786 0.500129 0.999185 Pb
0.250109 0.000559 0.750024 Pb
0.499904 0.000371 0.999791 Pb
0.250194 0.499576 0.750101 Pb
0.499995 0.500023 0.001543 Pb
0.984773 0.125277 0.230325 Br
0.233577 0.125253 0.482009 Br
0.983977 0.623844 0.228323 Br
0.233401 0.624970 0.482441 Br
0.985189 0.125020 0.731850 Br
0.234336 0.125348 0.981191 Br
0.482820 0.125962 0.227738 Br
0.735013 0.123561 0.479539 Br
0.984104 0.624538 0.728971 Br
0.234069 0.624516 0.979073 Br
0.501195 0.624267 0.238479 Br
0.484382 0.124743 0.730452 Br
0.734265 0.125666 0.980892 Br
0.731669 0.625506 0.983837 Br
0.229912 0.874377 0.234175 Br
0.477318 0.874913 0.484579 Br
0.233947 0.376049 0.234115 Br
0.232885 0.874869 0.735256 Br
0.477040 0.876281 0.981487 Br
0.737604 0.876009 0.233643 Br
0.980878 0.874476 0.483479 Br
0.229391 0.375107 0.734502 Br
0.481877 0.375354 0.986225 Br
0.719229 0.375738 0.236892 Br
0.979031 0.374350 0.485814 Br
0.731183 0.874800 0.735175 Br
0.979778 0.874737 0.984509 Br
0.980124 0.375281 0.982418 Br
0.772982 0.126520 0.265342 Br
0.020130 0.124590 0.515299 Br
0.753292 0.623096 0.266609 Br
0.015996 0.624024 0.516928 Br
0.770532 0.124607 0.767466 Br
0.018179 0.125103 0.015297 Br
0.268669 0.124997 0.265649 Br
0.514409 0.124141 0.517337 Br
0.770732 0.624589 0.762873 Br
0.019437 0.624780 0.014710 Br
0.270447 0.125445 0.765262 Br
0.519768 0.125276 0.015016 Br
0.270678 0.624456 0.766136 Br
0.513403 0.626170 0.012043 Br
0.015869 0.874337 0.268601 Br
0.265147 0.875040 0.520120 Br
0.016366 0.375703 0.268772 Br
0.016058 0.874529 0.768528 Br
0.264559 0.874815 0.017528 Br
0.515127 0.876539 0.269942 Br
0.768065 0.874910 0.521683 Br
0.016315 0.375192 0.770703 Br
0.266131 0.375174 0.020614 Br
0.752636 0.374671 0.514396 Br
0.515995 0.874829 0.769361 Br
0.765503 0.875489 0.019158 Br
0.518479 0.374854 0.763640 Br
0.766356 0.375814 0.019574 Br
0.874231 0.982914 0.224139 Br
0.123781 0.981939 0.474589 Br
0.870665 0.482230 0.224841 Br
0.122694 0.482240 0.476372 Br
0.873991 0.982005 0.724549 Br
0.123786 0.982151 0.974411 Br
0.373912 0.981963 0.224288 Br
0.623855 0.981718 0.474992 Br
0.873706 0.482056 0.722221 Br
0.123956 0.481975 0.975456 Br
0.380845 0.484313 0.223024 Br
0.374009 0.982527 0.724263 Br
0.623761 0.981788 0.974849 Br
0.624061 0.482735 0.975030 Br
0.974833 0.017638 0.373737 Br
0.224562 0.017891 0.623880 Br
0.975853 0.518069 0.373031 Br
0.225126 0.517826 0.623997 Br
0.974535 0.017607 0.873873 Br
0.224455 0.017600 0.123919 Br
0.474198 0.018106 0.373661 Br
0.724711 0.018261 0.623906 Br
0.973696 0.518811 0.873876 Br
0.227963 0.518894 0.125055 Br
0.474690 0.018300 0.873754 Br
0.724741 0.018021 0.124078 Br
0.477111 0.514521 0.875152 Br
0.722808 0.517576 0.123867 Br
0.026099 0.767465 0.126088 Br
0.275027 0.769059 0.376161 Br
0.025592 0.268223 0.126129 Br
0.025545 0.767790 0.625938 Br
0.275856 0.767217 0.876127 Br
0.522292 0.768728 0.124323 Br
0.774579 0.768024 0.375907 Br
0.025316 0.267968 0.626042 Br
0.276404 0.268979 0.876289 Br
0.525604 0.268346 0.126580 Br
0.776755 0.265656 0.376355 Br
0.526336 0.767718 0.625761 Br
0.776245 0.767265 0.875401 Br
0.775543 0.268208 0.876540 Br
0.125844 0.232546 0.274847 Br
0.374524 0.234710 0.524849 Br
0.127207 0.728235 0.276080 Br
0.126459 0.232059 0.775490 Br
0.376312 0.232160 0.025674 Br
0.626345 0.226575 0.276221 Br
0.876190 0.231706 0.526622 Br
0.126223 0.731950 0.775164 Br
0.375486 0.732093 0.025403 Br
0.875855 0.732414 0.524296 Br
0.626206 0.232356 0.774536 Br
0.876119 0.232697 0.025717 Br
0.626251 0.731827 0.775638 Br
0.875699 0.731417 0.025588 Br
0.875969 0.764560 0.224523 Br
0.124085 0.767613 0.474726 Br
0.873304 0.271265 0.224661 Br
0.123059 0.269611 0.474113 Br
0.873860 0.767552 0.723894 Br
0.123492 0.767751 0.974338 Br
0.374000 0.768167 0.223805 Br
0.624022 0.773876 0.474187 Br
0.874057 0.268040 0.724396 Br
0.123949 0.268031 0.974683 Br
0.374506 0.268222 0.225931 Br
0.374037 0.767085 0.723616 Br
0.623271 0.767691 0.975952 Br
0.623894 0.268076 0.974117 Br
0.974798 0.232123 0.373728 Br
0.223802 0.232241 0.624178 Br
0.974892 0.731383 0.373673 Br
0.224529 0.732038 0.623819 Br
0.974518 0.232112 0.873889 Br
0.224550 0.232202 0.123901 Br
0.474751 0.229651 0.373698 Br
0.725998 0.231434 0.624510 Br
0.974066 0.731473 0.873773 Br
0.225133 0.731917 0.124016 Br
0.474247 0.232834 0.874148 Br
0.724517 0.232183 0.124175 Br
0.472739 0.732268 0.872687 Br
0.727872 0.735604 0.123661 Br
0.126266 0.017896 0.275362 Br
0.375872 0.017646 0.525454 Br
0.127586 0.518778 0.274110 Br
0.126290 0.017829 0.775451 Br
0.376094 0.018210 0.025530 Br
0.626379 0.018226 0.274786 Br
0.876229 0.018330 0.525821 Br
0.126154 0.518041 0.774713 Br
0.376555 0.517232 0.027321 Br
0.869223 0.514027 0.520692 Br
0.626256 0.017946 0.775210 Br
0.876043 0.017715 0.025430 Br
0.626313 0.518057 0.774024 Br
0.875983 0.519131 0.026520 Br
0.025462 0.982036 0.126138 Br
0.275081 0.982291 0.376092 Br
0.025638 0.481633 0.126313 Br
0.025611 0.982213 0.626056 Br
0.275683 0.982854 0.876168 Br
0.525361 0.981596 0.126059 Br
0.776048 0.982302 0.376111 Br
0.022637 0.481150 0.625642 Br
0.276509 0.480893 0.876554 Br
0.528025 0.486268 0.131705 Br
0.778970 0.480726 0.373163 Br
0.525462 0.981784 0.625987 Br
0.775435 0.981934 0.876258 Br
0.774067 0.483838 0.874189 Br
0.385307 0.369524 0.359742 Cs
0.633034 0.371308 0.611914 Cs
0.610810 0.642969 0.380726 Cs
0.353637 0.623733 0.636183 Cs
0.400830 0.376767 0.610989 Cs
0.645305 0.359505 0.372051 Cs
0.613521 0.625216 0.646284 Cs
0.361549 0.631519 0.399417 Cs
0.249889 0.249675 0.249752 Pb
0.498514 0.248109 0.500026 Pb
0.500249 0.248751 0.249906 Pb
0.248380 0.250105 0.500691 Pb
0.496837 0.498135 0.256339 Pb
0.252165 0.499863 0.500503 Pb
0.251242 0.500899 0.250467 Pb
0.504350 0.502422 0.491330 Pb
0.484210 0.624885 0.731430 Br
0.735436 0.626051 0.479144 Br
0.733362 0.374555 0.735643 Br
0.493273 0.375518 0.482888 Br
0.274780 0.624774 0.265111 Br
0.526258 0.626385 0.508621 Br
0.516938 0.375262 0.275281 Br
0.266878 0.375349 0.520193 Br
0.374189 0.480825 0.723739 Br
0.454653 0.514285 0.373254 Br
0.720966 0.514679 0.619735 Br
0.523404 0.264563 0.625855 Br
0.272942 0.265846 0.376199 Br
0.626882 0.745362 0.268281 Br
0.376741 0.731656 0.526527 Br
0.374115 0.270127 0.723282 Br
0.623433 0.255664 0.480015 Br
0.474739 0.735692 0.373212 Br
0.724147 0.731687 0.623380 Br
0.378077 0.517779 0.523389 Br
0.526785 0.485932 0.622934 Br
0.273434 0.480000 0.375938 Br
0.616993 0.495544 0.434418 Br
