Cs4 Pb4 Br12                            
   1.0000000000000000     
     8.4362077874323322    0.0000000000000000   -0.0000000000000006
     0.0000000000000000   11.6718407337846948    0.0000000000000000
    -0.0000000000000006    0.0000000000000000    7.6360704268766471
   Cs   Pb   Br
     4     4    12
Direct
  0.0835011439270232  0.2500000000000000  0.4652243222217791
  0.4164988560729768  0.7500000000000000  0.9652243222217791
  0.5835011439270232  0.2500000000000000  0.0347756777782209
  0.9164988560729768  0.7500000000000000  0.5347756777782209
  0.0000000000000000  0.0000000000000000  0.0000000000000000
  0.5000000000000000  0.0000000000000000  0.5000000000000000
  0.5000000000000000  0.5000000000000000  0.5000000000000000
  0.0000000000000000  0.5000000000000000  0.0000000000000000
  0.4998569319509016  0.7500000000000000  0.4311661056779457
  0.0001430680490984  0.2500000000000000  0.9311661056779457
  0.9998569319509016  0.7500000000000000  0.0688338943220543
  0.5001430680490984  0.2500000000000000  0.5688338943220543
  0.3107124367049749  0.4644849089982301  0.1766511245148905
  0.1892875632950251  0.5355150910017699  0.6766511245148976
  0.8107124367049749  0.0355150910017699  0.3233488754851024
  0.6892875632950251  0.9644849089982301  0.8233488754851024
  0.3107124367049749  0.0355150910017699  0.1766511245148905
  0.1892875632950251  0.9644849089982301  0.6766511245148976
  0.6892875632950251  0.5355150910017699  0.8233488754851024
  0.8107124367049749  0.4644849089982301  0.3233488754851024

  0.00000000E+00  0.00000000E+00  0.00000000E+00
  0.00000000E+00  0.00000000E+00  0.00000000E+00
  0.00000000E+00  0.00000000E+00  0.00000000E+00
  0.00000000E+00  0.00000000E+00  0.00000000E+00
  0.00000000E+00  0.00000000E+00  0.00000000E+00
  0.00000000E+00  0.00000000E+00  0.00000000E+00
  0.00000000E+00  0.00000000E+00  0.00000000E+00
  0.00000000E+00  0.00000000E+00  0.00000000E+00
  0.00000000E+00  0.00000000E+00  0.00000000E+00
  0.00000000E+00  0.00000000E+00  0.00000000E+00
  0.00000000E+00  0.00000000E+00  0.00000000E+00
  0.00000000E+00  0.00000000E+00  0.00000000E+00
  0.00000000E+00  0.00000000E+00  0.00000000E+00
  0.00000000E+00  0.00000000E+00  0.00000000E+00
  0.00000000E+00  0.00000000E+00  0.00000000E+00
  0.00000000E+00  0.00000000E+00  0.00000000E+00
  0.00000000E+00  0.00000000E+00  0.00000000E+00
  0.00000000E+00  0.00000000E+00  0.00000000E+00
  0.00000000E+00  0.00000000E+00  0.00000000E+00
  0.00000000E+00  0.00000000E+00  0.00000000E+00
