Cs4 Pb4 Br12                            
   1.0000000000000000     
     8.4362077874323322    0.0000000000000000   -0.0000000000000006
     0.0000000000000000   11.6718407337846948    0.0000000000000000
    -0.0000000000000006    0.0000000000000000    7.6360704268766471
   Cs   Pb   Br
     4     4    12
Direct
  0.0835011439270261  0.2500000000000000  0.4652243222217816
  0.4164988560729740  0.7500000000000000  0.9652243222217817
  0.5835011439270262  0.2500000000000000  0.0347756777782184
  0.9164988560729738  0.7500000000000000  0.5347756777782183
  0.0000000000000000 -0.0000000000000000  0.0000000000000000
  0.5000000000000000 -0.0000000000000000  0.5000000000000000
  0.5000000000000000  0.5000000000000000  0.5000000000000000
  0.0000000000000000  0.5000000000000000  0.0000000000000000
  0.4998569319508998  0.7500000000000000  0.4311661056779478
  0.0001430680491003  0.2500000000000000  0.9311661056779476
 -0.0001430680491004  0.7500000000000000  0.0688338943220522
  0.5001430680491002  0.2500000000000000  0.5688338943220524
  0.3107124367049720  0.4644849089982278  0.1766511245148940
  0.1892875632950281  0.5355150910017721  0.6766511245148942
  0.8107124367049718  0.0355150910017721  0.3233488754851059
  0.6892875632950282  0.9644849089982279  0.8233488754851058
  0.3107124367049720  0.0355150910017721  0.1766511245148940
  0.1892875632950281  0.9644849089982279  0.6766511245148942
  0.6892875632950282  0.5355150910017721  0.8233488754851058
  0.8107124367049718  0.4644849089982278  0.3233488754851059

  0.00000000E+00  0.00000000E+00  0.00000000E+00
  0.00000000E+00  0.00000000E+00  0.00000000E+00
  0.00000000E+00  0.00000000E+00  0.00000000E+00
  0.00000000E+00  0.00000000E+00  0.00000000E+00
  0.00000000E+00  0.00000000E+00  0.00000000E+00
  0.00000000E+00  0.00000000E+00  0.00000000E+00
  0.00000000E+00  0.00000000E+00  0.00000000E+00
  0.00000000E+00  0.00000000E+00  0.00000000E+00
  0.00000000E+00  0.00000000E+00  0.00000000E+00
  0.00000000E+00  0.00000000E+00  0.00000000E+00
  0.00000000E+00  0.00000000E+00  0.00000000E+00
  0.00000000E+00  0.00000000E+00  0.00000000E+00
  0.00000000E+00  0.00000000E+00  0.00000000E+00
  0.00000000E+00  0.00000000E+00  0.00000000E+00
  0.00000000E+00  0.00000000E+00  0.00000000E+00
  0.00000000E+00  0.00000000E+00  0.00000000E+00
  0.00000000E+00  0.00000000E+00  0.00000000E+00
  0.00000000E+00  0.00000000E+00  0.00000000E+00
  0.00000000E+00  0.00000000E+00  0.00000000E+00
  0.00000000E+00  0.00000000E+00  0.00000000E+00
