Cs8 Pb8 Br23                            
   1.0000000000000000     
     8.4564889999999995    0.0000000000000000    8.0403009999999995
     0.0000000000000000   11.7298469999999995    0.0000000000000000
    -8.4564889999999995    0.0000000000000000    8.0403009999999995
   Cs   Pb   Br
     8     8    23
Direct
  0.2692100000000011  0.2496399999999994  0.2024740000000023
  0.7722959999999972  0.2388600000000025  0.7300249999999977
  0.7186110000000028  0.7621839999999978  0.2481790000000004
  0.2018569999999968  0.7552140000000023  0.7826230000000010
  0.2823330000000013  0.2448130000000006  0.7293200000000013
  0.7972070000000002  0.2474899999999991  0.2263949999999966
  0.7354669999999999  0.7502360000000010  0.8048670000000016
  0.2222760000000008  0.7514979999999980  0.2749609999999976
  0.0010679999999965  0.0014970000000005  0.9999490000000009
  0.5041280000000015  0.9994689999999977  0.4981719999999967
  0.4986450000000033  0.9998950000000022  0.9995389999999986
  0.0035060000000016  0.0025570000000030  0.4998160000000027
  0.4987920000000017  0.4971850000000018  0.0005290000000002
  0.9987449999999995  0.5089139999999972  0.5006440000000012
  0.0001589999999965  0.4994569999999996  0.0004160000000013
  0.4847899999999967  0.4935070000000010  0.5034270000000021
  0.4732460000000032  0.7484290000000016  0.9644970000000015
  0.9708210000000008  0.7549830000000028  0.4523999999999972
  0.9760530000000003  0.2508499999999998  0.9726459999999975
  0.4705269999999970  0.2413969999999992  0.4681590000000000
  0.0150270000000035  0.7507060000000010  0.0318129999999996
  0.5294570000000007  0.2486529999999973  0.0407149999999987
  0.0168930000000032  0.2573030000000003  0.5367040000000003
  0.2473170000000025  0.4697079999999971  0.9477309999999974
  0.4520729999999986  0.5339979999999969  0.2527990000000031
  0.9475600000000028  0.5335239999999999  0.7463380000000015
  0.5473149999999976  0.0265279999999990  0.7498780000000025
  0.0508319999999998  0.0359610000000004  0.2523369999999971
  0.7529729999999972  0.9836570000000009  0.0415509999999983
  0.2582530000000034  0.9584469999999996  0.5469239999999971
  0.2486839999999972  0.0308520000000030  0.9495190000000022
  0.7508740000000032  0.0329630000000023  0.4481710000000021
  0.4534349999999989  0.9588749999999990  0.2487369999999984
  0.9519390000000030  0.9655800000000028  0.7471060000000023
  0.7520230000000012  0.5238259999999997  0.0521280000000033
  0.2409630000000007  0.5470759999999970  0.5516000000000005
  0.5429249999999968  0.4552710000000033  0.7517259999999979
  0.0493769999999998  0.4656900000000022  0.2538970000000020
  0.6596899999999977  0.6289549999999977  0.5035719999999984

  0.00000000E+00  0.00000000E+00  0.00000000E+00
  0.00000000E+00  0.00000000E+00  0.00000000E+00
  0.00000000E+00  0.00000000E+00  0.00000000E+00
  0.00000000E+00  0.00000000E+00  0.00000000E+00
  0.00000000E+00  0.00000000E+00  0.00000000E+00
  0.00000000E+00  0.00000000E+00  0.00000000E+00
  0.00000000E+00  0.00000000E+00  0.00000000E+00
  0.00000000E+00  0.00000000E+00  0.00000000E+00
  0.00000000E+00  0.00000000E+00  0.00000000E+00
  0.00000000E+00  0.00000000E+00  0.00000000E+00
  0.00000000E+00  0.00000000E+00  0.00000000E+00
  0.00000000E+00  0.00000000E+00  0.00000000E+00
  0.00000000E+00  0.00000000E+00  0.00000000E+00
  0.00000000E+00  0.00000000E+00  0.00000000E+00
  0.00000000E+00  0.00000000E+00  0.00000000E+00
  0.00000000E+00  0.00000000E+00  0.00000000E+00
  0.00000000E+00  0.00000000E+00  0.00000000E+00
  0.00000000E+00  0.00000000E+00  0.00000000E+00
  0.00000000E+00  0.00000000E+00  0.00000000E+00
  0.00000000E+00  0.00000000E+00  0.00000000E+00
  0.00000000E+00  0.00000000E+00  0.00000000E+00
  0.00000000E+00  0.00000000E+00  0.00000000E+00
  0.00000000E+00  0.00000000E+00  0.00000000E+00
  0.00000000E+00  0.00000000E+00  0.00000000E+00
  0.00000000E+00  0.00000000E+00  0.00000000E+00
  0.00000000E+00  0.00000000E+00  0.00000000E+00
  0.00000000E+00  0.00000000E+00  0.00000000E+00
  0.00000000E+00  0.00000000E+00  0.00000000E+00
  0.00000000E+00  0.00000000E+00  0.00000000E+00
  0.00000000E+00  0.00000000E+00  0.00000000E+00
  0.00000000E+00  0.00000000E+00  0.00000000E+00
  0.00000000E+00  0.00000000E+00  0.00000000E+00
  0.00000000E+00  0.00000000E+00  0.00000000E+00
  0.00000000E+00  0.00000000E+00  0.00000000E+00
  0.00000000E+00  0.00000000E+00  0.00000000E+00
  0.00000000E+00  0.00000000E+00  0.00000000E+00
  0.00000000E+00  0.00000000E+00  0.00000000E+00
  0.00000000E+00  0.00000000E+00  0.00000000E+00
  0.00000000E+00  0.00000000E+00  0.00000000E+00
