Cs8 Pb8 Br23
1.0
8.456489 0.000000 8.040301
0.000000 11.729847 0.000000
-8.456489 0.000000 8.040301
Cs Pb Br
8 8 23
direct
0.269210 0.249640 0.202474 Cs
0.772296 0.238860 0.730025 Cs
0.718611 0.762184 0.248179 Cs
0.201857 0.755214 0.782623 Cs
0.282333 0.244813 0.729320 Cs
0.797207 0.247490 0.226395 Cs
0.735467 0.750236 0.804867 Cs
0.222276 0.751498 0.274961 Cs
0.001068 0.001497 -0.000051 Pb
0.504128 -0.000531 0.498172 Pb
0.498645 -0.000105 -0.000461 Pb
0.003506 0.002557 0.499816 Pb
0.498792 0.497185 0.000529 Pb
-0.001255 0.508914 0.500644 Pb
0.000159 0.499457 0.000416 Pb
0.484790 0.493507 0.503427 Pb
0.473246 0.748429 0.964497 Br
0.970821 0.754983 0.452400 Br
0.976053 0.250850 0.972646 Br
0.470527 0.241397 0.468159 Br
0.015027 0.750706 0.031813 Br
0.529457 0.248653 0.040715 Br
0.016893 0.257303 0.536704 Br
0.247317 0.469708 0.947731 Br
0.452073 0.533998 0.252799 Br
0.947560 0.533524 0.746338 Br
0.547315 0.026528 0.749878 Br
0.050832 0.035961 0.252337 Br
0.752973 0.983657 0.041551 Br
0.258253 0.958447 0.546924 Br
0.248684 0.030852 0.949519 Br
0.750874 0.032963 0.448171 Br
0.453435 0.958875 0.248737 Br
0.951939 0.965580 0.747106 Br
0.752023 0.523826 0.052128 Br
0.240963 0.547076 0.551600 Br
0.542925 0.455271 0.751726 Br
0.049377 0.465690 0.253897 Br
0.659690 0.628955 0.503572 Br
