Cs64 Pb64 Br191
1.0
16.840035 0.000000 16.155961
0.000000 23.527616 0.000000
-16.840035 0.000000 16.155961
Cs Pb Br Cs Pb Br
56 56 168 8 8 23
direct
0.886237 0.875275 0.353641 Cs
0.136128 0.875128 0.603777 Cs
0.885895 0.375051 0.353400 Cs
0.135897 0.374993 0.604089 Cs
0.886351 0.875171 0.853999 Cs
0.135858 0.875157 0.103444 Cs
0.383976 0.875296 0.351568 Cs
0.636597 0.874929 0.604569 Cs
0.886203 0.374773 0.853809 Cs
0.135931 0.374893 0.103535 Cs
0.386103 0.875159 0.853545 Cs
0.636129 0.874997 0.103636 Cs
0.386117 0.374833 0.853654 Cs
0.636109 0.375003 0.103431 Cs
0.103684 0.125043 0.386136 Cs
0.352895 0.124992 0.635966 Cs
0.101269 0.625045 0.385435 Cs
0.103549 0.125041 0.886101 Cs
0.353904 0.125024 0.135924 Cs
0.604179 0.124926 0.385072 Cs
0.853940 0.125034 0.636208 Cs
0.103950 0.625004 0.886029 Cs
0.353792 0.625039 0.135432 Cs
0.854496 0.625128 0.636199 Cs
0.604008 0.125018 0.886262 Cs
0.853753 0.125020 0.135971 Cs
0.604208 0.624862 0.887208 Cs
0.853461 0.625028 0.136717 Cs
0.896471 0.875148 0.113929 Cs
0.146037 0.875167 0.363803 Cs
0.896427 0.374978 0.113876 Cs
0.146124 0.374916 0.363799 Cs
0.896711 0.875232 0.614132 Cs
0.146220 0.875189 0.864034 Cs
0.395745 0.875208 0.113596 Cs
0.648107 0.875506 0.363732 Cs
0.894218 0.374915 0.613460 Cs
0.146367 0.374861 0.863997 Cs
0.395881 0.375004 0.113742 Cs
0.395899 0.875026 0.615390 Cs
0.646030 0.875132 0.864189 Cs
0.646293 0.374811 0.864433 Cs
0.113742 0.125026 0.146081 Cs
0.363472 0.124943 0.395992 Cs
0.114131 0.625008 0.146614 Cs
0.113960 0.125041 0.646355 Cs
0.363935 0.124978 0.896592 Cs
0.613985 0.125030 0.146319 Cs
0.864177 0.125084 0.396344 Cs
0.113178 0.625117 0.646311 Cs
0.363694 0.625065 0.897184 Cs
0.614383 0.625131 0.145292 Cs
0.864759 0.625215 0.394026 Cs
0.614639 0.124916 0.647228 Cs
0.864223 0.124975 0.896682 Cs
0.863885 0.625093 0.896162 Cs
0.750634 0.750922 0.249434 Pb
0.000152 0.750274 0.500122 Pb
0.750145 0.249885 0.249872 Pb
-0.000047 0.250069 0.500075 Pb
0.750363 0.750746 0.750278 Pb
0.000031 0.749905 0.000022 Pb
0.249323 0.750684 0.249435 Pb
0.499433 0.753422 0.498815 Pb
0.750403 0.249408 0.750415 Pb
0.000008 0.250135 -0.000009 Pb
0.249636 0.750341 0.750414 Pb
0.499894 0.750258 -0.000042 Pb
0.249871 0.249829 0.750195 Pb
0.500000 0.249966 0.000061 Pb
0.000209 0.750330 0.249874 Pb
0.249748 0.749627 0.500028 Pb
0.999984 0.249914 0.249944 Pb
0.000066 0.750174 0.750196 Pb
0.249798 0.750250 0.999923 Pb
0.499621 0.750512 0.249546 Pb
0.751134 0.750852 0.500188 Pb
1.000014 0.250034 0.750044 Pb
0.249920 0.249976 0.999949 Pb
0.750043 0.250026 0.500067 Pb
0.500033 0.749542 0.750255 Pb
0.750250 0.750215 0.000086 Pb
0.499891 0.249499 0.750273 Pb
0.750150 0.249906 0.000105 Pb
0.999987 0.000225 0.249930 Pb
0.249756 0.999804 0.500014 Pb
0.000138 0.499701 0.249833 Pb
0.000017 0.000180 0.750080 Pb
0.249897 0.000186 0.999930 Pb
0.500039 0.999915 0.249867 Pb
0.750246 0.000565 0.500097 Pb
0.000074 0.499825 0.750205 Pb
0.249788 0.499866 0.999958 Pb
0.749161 0.501640 0.500269 Pb
0.499980 0.000186 0.750213 Pb
0.750115 0.000084 0.000074 Pb
0.499645 0.499940 0.750457 Pb
0.750258 0.500019 0.000249 Pb
0.750227 0.000435 0.249879 Pb
0.000040 0.000189 0.500055 Pb
0.750171 0.499470 0.249697 Pb
-0.000900 0.499704 0.500004 Pb
0.750232 0.000024 0.750220 Pb
0.000029 1.000064 0.000034 Pb
0.249785 0.000469 0.249814 Pb
0.500135 0.001142 0.500131 Pb
0.750873 0.499665 0.751013 Pb
0.000017 0.500158 -0.000016 Pb
0.249898 0.000217 0.750188 Pb
0.500018 0.000100 0.000049 Pb
0.249656 0.499829 0.750476 Pb
0.499927 0.499933 0.000024 Pb
0.984184 0.125100 0.230679 Br
0.234769 0.125102 0.481258 Br
0.984270 0.625038 0.231790 Br
0.231216 0.625239 0.479449 Br
0.984372 0.125082 0.730597 Br
0.234209 0.125096 0.980568 Br
0.484538 0.125276 0.231604 Br
0.733842 0.125526 0.480433 Br
0.984303 0.625039 0.731147 Br
0.234244 0.625054 0.981411 Br
0.485411 0.625360 0.229838 Br
0.484025 0.124718 0.729699 Br
0.734350 0.125015 0.980800 Br
0.734485 0.625074 0.981218 Br
0.230731 0.875406 0.234251 Br
0.480151 0.870049 0.483954 Br
0.230940 0.374697 0.234353 Br
0.231006 0.875063 0.734183 Br
0.480568 0.875043 0.984110 Br
0.731552 0.875521 0.233649 Br
0.980989 0.875031 0.484298 Br
0.231312 0.375062 0.734142 Br
0.480728 0.375108 0.984301 Br
0.730211 0.375006 0.234376 Br
0.979592 0.375017 0.484400 Br
0.730198 0.875077 0.734393 Br
0.980999 0.874977 0.984499 Br
0.980714 0.375163 0.984362 Br
0.769450 0.125293 0.266130 Br
0.019124 0.125130 0.515819 Br
0.765516 0.625251 0.266555 Br
0.017788 0.624838 0.515953 Br
0.769664 0.124776 0.766012 Br
0.019061 0.125099 0.015638 Br
0.269911 0.125038 0.265844 Br
0.518927 0.124159 0.515455 Br
0.767781 0.625155 0.764904 Br
0.019763 0.625032 0.015862 Br
0.269652 0.125046 0.765926 Br
0.519362 0.125047 0.015787 Br
0.266906 0.625089 0.768464 Br
0.518774 0.625109 0.015790 Br
0.015679 0.875177 0.269327 Br
0.266933 0.874497 0.519634 Br
0.015664 0.374973 0.269501 Br
0.015686 0.875082 0.769192 Br
0.265552 0.875143 0.019138 Br
0.515386 0.875023 0.271961 Br
0.765447 0.875658 0.519637 Br
0.015857 0.375034 0.769468 Br
0.265667 0.375011 0.019246 Br
0.760733 0.376084 0.518818 Br
0.515730 0.874423 0.767502 Br
0.765802 0.875044 0.019522 Br
0.516097 0.374842 0.768051 Br
0.765727 0.375052 0.019255 Br
0.873951 0.982163 0.224556 Br
0.124182 0.982020 0.474603 Br
0.873851 0.482195 0.224609 Br
0.122545 0.481931 0.474797 Br
0.873856 0.982036 0.724519 Br
0.123986 0.982142 0.974543 Br
0.374059 0.981996 0.224596 Br
0.623339 0.981887 0.474762 Br
0.873952 0.482108 0.724577 Br
0.123958 0.481998 0.974431 Br
0.374007 0.482261 0.224971 Br
0.374062 0.982133 0.724556 Br
0.623860 0.982060 0.974643 Br
0.623876 0.482165 0.974669 Br
0.974587 0.018000 0.374046 Br
0.224601 0.017926 0.623861 Br
0.974292 0.517505 0.374012 Br
0.223998 0.518420 0.623845 Br
0.974538 0.017930 0.873897 Br
0.224556 0.018100 0.124011 Br
0.474343 0.017723 0.374647 Br
0.724469 0.017982 0.623887 Br
0.974444 0.518007 0.873930 Br
0.224376 0.517486 0.123839 Br
0.474645 0.017899 0.873739 Br
0.724468 0.018084 0.124012 Br
0.474519 0.518180 0.873878 Br
0.724482 0.517893 0.124052 Br
0.025606 0.767909 0.126155 Br
0.275461 0.767767 0.376115 Br
0.025478 0.267969 0.126138 Br
0.025513 0.767995 0.626019 Br
0.275613 0.768185 0.875953 Br
0.524397 0.768573 0.126504 Br
0.775266 0.768234 0.376128 Br
0.025343 0.268080 0.625992 Br
0.275590 0.267983 0.876041 Br
0.525383 0.268177 0.126380 Br
0.775276 0.268219 0.376282 Br
0.527618 0.764135 0.624389 Br
0.775615 0.768038 0.875948 Br
0.775523 0.267809 0.876126 Br
0.126163 0.231993 0.275579 Br
0.376550 0.232619 0.525513 Br
0.126134 0.732399 0.275826 Br
0.126173 0.232048 0.775460 Br
0.376153 0.232089 0.025494 Br
0.626007 0.232408 0.275690 Br
0.875802 0.232487 0.525662 Br
0.126043 0.732328 0.775525 Br
0.376120 0.732197 0.025331 Br
0.876085 0.732613 0.525572 Br
0.626028 0.232056 0.775293 Br
0.876028 0.232102 0.025566 Br
0.625952 0.732103 0.776316 Br
0.876032 0.731890 0.025659 Br
0.874167 0.767845 0.224389 Br
0.124844 0.768083 0.474830 Br
0.873883 0.268068 0.224571 Br
0.124117 0.268178 0.474615 Br
0.873748 0.767976 0.724440 Br
0.123957 0.767994 0.974413 Br
0.373900 0.767958 0.224753 Br
0.623274 0.765709 0.473128 Br
0.873900 0.267872 0.724393 Br
0.123982 0.267966 0.974542 Br
0.374069 0.268097 0.224604 Br
0.374086 0.767582 0.724492 Br
0.623854 0.767929 0.974753 Br
0.623863 0.267894 0.974652 Br
0.974560 0.232102 0.374034 Br
0.224623 0.232167 0.623868 Br
0.974656 0.732627 0.374076 Br
0.224411 0.731864 0.623866 Br
0.974506 0.232091 0.873895 Br
0.224554 0.231945 0.124019 Br
0.474336 0.232149 0.374583 Br
0.724414 0.232249 0.624004 Br
0.974482 0.732071 0.873900 Br
0.224350 0.732544 0.123867 Br
0.474599 0.232030 0.873782 Br
0.724452 0.232037 0.124088 Br
0.474759 0.731786 0.873432 Br
0.724734 0.732150 0.123949 Br
0.126187 0.018097 0.275582 Br
0.376596 0.017556 0.525545 Br
0.126051 0.517596 0.275828 Br
0.126144 0.018016 0.775491 Br
0.376159 0.017975 0.025482 Br
0.626016 0.017760 0.275469 Br
0.875879 0.018029 0.525492 Br
0.126095 0.517700 0.775474 Br
0.376142 0.517827 0.025428 Br
0.873077 0.517432 0.524685 Br
0.625968 0.018061 0.775417 Br
0.876026 0.017931 0.025526 Br
0.626030 0.517349 0.775965 Br
0.876048 0.518180 0.025753 Br
0.025490 0.982140 0.126137 Br
0.275379 0.982201 0.376173 Br
0.025566 0.482078 0.126180 Br
0.025494 0.982069 0.625994 Br
0.275583 0.982056 0.876029 Br
0.525349 0.981871 0.126364 Br
0.775454 0.982095 0.376199 Br
0.024514 0.481795 0.625869 Br
0.275613 0.481874 0.875902 Br
0.524997 0.481922 0.126831 Br
0.773785 0.481765 0.376331 Br
0.525440 0.981856 0.625388 Br
0.775430 0.981950 0.876033 Br
0.775942 0.482172 0.876316 Br
0.384053 0.374701 0.351552 Cs
0.636465 0.374495 0.609172 Cs
0.610964 0.628048 0.378455 Cs
0.349301 0.625472 0.639784 Cs
0.395483 0.374371 0.614977 Cs
0.647223 0.374777 0.364541 Cs
0.619803 0.623412 0.653758 Cs
0.357309 0.625011 0.390197 Cs
0.249790 0.249559 0.249814 Pb
0.500193 0.247876 0.500098 Pb
0.500081 0.250313 0.249866 Pb
0.249668 0.250331 0.499982 Pb
0.499919 0.500115 0.249772 Pb
0.248378 0.500803 0.500058 Pb
0.249401 0.499390 0.249514 Pb
0.496383 0.495636 0.499267 Pb
0.484596 0.624571 0.727355 Br
0.737070 0.626311 0.479063 Br
0.732301 0.374834 0.735924 Br
0.483647 0.377977 0.482525 Br
0.265723 0.625069 0.261843 Br
0.515586 0.375615 0.271910 Br
0.266441 0.375832 0.519352 Br
0.374007 0.482245 0.724433 Br
0.476486 0.524001 0.375945 Br
0.726549 0.517526 0.624520 Br
0.525054 0.267622 0.625381 Br
0.275398 0.267830 0.376175 Br
0.626017 0.736061 0.272227 Br
0.377779 0.726832 0.524382 Br
0.374109 0.267817 0.724593 Br
0.623283 0.267398 0.474857 Br
0.476089 0.726076 0.375420 Br
0.724492 0.732080 0.623739 Br
0.625917 0.516100 0.274853 Br
0.374735 0.524581 0.524660 Br
0.524169 0.482526 0.625269 Br
0.275332 0.482302 0.376168 Br
0.618259 0.505642 0.484129 Br
