Cs64 Pb64 Br191
1.0
16.840035 0.000000 16.155961
0.000000 23.527616 0.000000
-16.840035 0.000000 16.155961
Cs Pb Br Cs Pb Br
56 56 168 8 8 23
direct
0.886267 0.875360 0.353524 Cs
0.136344 0.875043 0.603433 Cs
0.886242 0.374392 0.351598 Cs
0.136307 0.374484 0.605459 Cs
0.886563 0.875212 0.853898 Cs
0.135921 0.875154 0.103164 Cs
0.386376 0.874768 0.356602 Cs
0.635400 0.874331 0.602947 Cs
0.885902 0.374735 0.853413 Cs
0.135988 0.374812 0.103155 Cs
0.386122 0.875112 0.853246 Cs
0.636047 0.874860 0.103679 Cs
0.386449 0.374686 0.853370 Cs
0.636013 0.374811 0.102894 Cs
0.103902 0.124900 0.386183 Cs
0.353718 0.124665 0.635377 Cs
0.100432 0.625731 0.385154 Cs
0.103544 0.124953 0.886083 Cs
0.353596 0.124890 0.135946 Cs
0.603451 0.124198 0.385868 Cs
0.854041 0.124623 0.636083 Cs
0.104095 0.624999 0.885956 Cs
0.354186 0.625130 0.135684 Cs
0.854313 0.626925 0.637271 Cs
0.603786 0.124915 0.885997 Cs
0.853885 0.124852 0.135775 Cs
0.603627 0.624690 0.886679 Cs
0.853380 0.625143 0.136792 Cs
0.896554 0.875185 0.113903 Cs
0.146433 0.875019 0.363984 Cs
0.896410 0.374968 0.113656 Cs
0.146756 0.374386 0.363029 Cs
0.896768 0.875134 0.614073 Cs
0.146453 0.875197 0.864082 Cs
0.395892 0.875315 0.113647 Cs
0.646936 0.876844 0.362051 Cs
0.892406 0.373535 0.613751 Cs
0.146480 0.374798 0.864082 Cs
0.396122 0.375036 0.113938 Cs
0.397245 0.873916 0.613958 Cs
0.646163 0.875087 0.864116 Cs
0.646716 0.374684 0.864568 Cs
0.113931 0.124923 0.146083 Cs
0.364224 0.124469 0.396541 Cs
0.114071 0.625087 0.146833 Cs
0.114130 0.124930 0.646347 Cs
0.363919 0.124761 0.896520 Cs
0.613803 0.124777 0.146247 Cs
0.864466 0.124864 0.396553 Cs
0.113220 0.625331 0.646499 Cs
0.364054 0.625111 0.897033 Cs
0.614229 0.625533 0.143491 Cs
0.864659 0.627116 0.391460 Cs
0.613378 0.123875 0.645694 Cs
0.864447 0.124781 0.897065 Cs
0.863862 0.625242 0.896471 Cs
0.750857 0.751418 0.249196 Pb
0.000177 0.750364 0.500227 Pb
0.750345 0.249320 0.249613 Pb
0.000058 0.249979 0.500074 Pb
0.750114 0.750819 0.750214 Pb
0.000076 0.749913 0.999975 Pb
0.249507 0.750725 0.249587 Pb
0.503396 0.743994 0.500132 Pb
0.750711 0.247868 0.750885 Pb
0.000050 0.250112 0.999961 Pb
0.249747 0.750381 0.750389 Pb
0.499756 0.750447 0.999779 Pb
0.249980 0.249565 0.750205 Pb
0.500010 0.249657 0.000169 Pb
0.000437 0.750584 0.249762 Pb
0.250464 0.749162 0.499944 Pb
0.000147 0.249673 0.249877 Pb
0.000154 0.750268 0.750256 Pb
0.249883 0.750198 0.999970 Pb
0.498925 0.751041 0.249352 Pb
0.750186 0.750274 0.499872 Pb
0.000101 0.249798 0.750101 Pb
0.250016 0.249904 0.999961 Pb
0.749925 0.249114 0.499971 Pb
0.500126 0.749515 0.750210 Pb
0.750190 0.750312 0.999945 Pb
0.499550 0.248662 0.750637 Pb
0.750110 0.249623 0.000052 Pb
0.000104 0.000210 0.249932 Pb
0.250093 0.999484 0.500066 Pb
0.000304 0.499660 0.249705 Pb
0.000100 0.000093 0.750052 Pb
0.249985 0.000140 0.999942 Pb
0.499680 0.999831 0.249848 Pb
0.750193 0.999677 0.500101 Pb
0.000009 0.499788 0.750282 Pb
0.249915 0.499918 -0.000015 Pb
0.754540 0.501721 0.500468 Pb
0.499959 0.999509 0.750094 Pb
0.750044 0.999900 0.999989 Pb
0.499613 0.499428 0.750389 Pb
0.750212 0.500069 1.000004 Pb
0.750277 0.000546 0.249846 Pb
0.000154 1.000057 0.500057 Pb
0.749842 0.499257 0.249347 Pb
0.001159 0.498980 0.499604 Pb
0.750034 0.999404 0.750050 Pb
0.000082 1.000037 0.000019 Pb
0.249982 0.000136 0.249928 Pb
0.500037 0.997391 0.499885 Pb
0.750563 0.500098 0.750656 Pb
0.000057 0.500148 0.999930 Pb
0.250083 0.999953 0.750040 Pb
0.499996 0.999899 0.999985 Pb
0.250073 0.499794 0.750488 Pb
0.499880 0.499692 0.999977 Pb
0.984331 0.125163 0.230415 Br
0.235149 0.125186 0.481300 Br
0.983945 0.624961 0.232512 Br
0.232160 0.624229 0.477056 Br
0.984591 0.125045 0.730391 Br
0.234274 0.125133 0.980395 Br
0.484247 0.125174 0.231014 Br
0.734608 0.125095 0.480498 Br
0.984488 0.624953 0.730935 Br
0.234517 0.624948 0.981035 Br
0.486901 0.625123 0.230227 Br
0.483990 0.124070 0.730558 Br
0.734355 0.124934 0.980484 Br
0.734110 0.624967 0.981198 Br
0.229939 0.875231 0.233936 Br
0.484317 0.867719 0.486592 Br
0.230435 0.374713 0.233660 Br
0.230510 0.874864 0.734180 Br
0.480229 0.875047 0.983772 Br
0.732687 0.875787 0.232936 Br
0.981000 0.874753 0.484400 Br
0.231129 0.375015 0.734688 Br
0.480795 0.374889 0.984415 Br
0.730622 0.374728 0.233410 Br
0.977802 0.375376 0.484444 Br
0.729438 0.874629 0.733553 Br
0.980992 0.874934 0.984531 Br
0.980497 0.375241 0.984187 Br
0.770472 0.125394 0.266177 Br
0.019091 0.125310 0.515645 Br
0.763692 0.625056 0.266037 Br
0.016961 0.623933 0.516120 Br
0.770731 0.123943 0.766419 Br
0.019130 0.125153 0.015540 Br
0.270037 0.125033 0.266041 Br
0.516986 0.122123 0.514224 Br
0.768310 0.624896 0.765178 Br
0.020068 0.624942 0.015771 Br
0.270073 0.124902 0.765338 Br
0.519672 0.124920 0.015625 Br
0.267294 0.624901 0.768238 Br
0.518352 0.624938 0.015128 Br
0.015897 0.875201 0.269437 Br
0.266787 0.873947 0.519044 Br
0.016200 0.374994 0.269380 Br
0.015873 0.875004 0.769292 Br
0.265530 0.875104 0.019017 Br
0.514269 0.875268 0.270950 Br
0.765912 0.874434 0.519599 Br
0.015749 0.375075 0.769611 Br
0.265820 0.375049 0.019197 Br
0.755571 0.376457 0.520303 Br
0.515954 0.874009 0.768060 Br
0.765866 0.874968 0.019689 Br
0.517097 0.374014 0.767532 Br
0.765739 0.375056 0.018737 Br
0.874029 0.982236 0.224523 Br
0.123962 0.982024 0.474539 Br
0.873769 0.482290 0.224724 Br
0.123593 0.481840 0.475061 Br
0.873895 0.981852 0.724508 Br
0.123939 0.982185 0.974505 Br
0.373951 0.981941 0.224647 Br
0.623907 0.982035 0.474423 Br
0.873777 0.482988 0.723347 Br
0.123896 0.482012 0.974438 Br
0.374034 0.482292 0.225696 Br
0.373995 0.981670 0.724188 Br
0.623916 0.981989 0.974605 Br
0.623960 0.482156 0.974658 Br
0.974670 0.017934 0.373985 Br
0.224593 0.017809 0.623792 Br
0.974103 0.517461 0.374289 Br
0.224519 0.518984 0.623308 Br
0.974648 0.017875 0.873819 Br
0.224639 0.018049 0.123940 Br
0.474195 0.016658 0.374135 Br
0.724683 0.017887 0.623788 Br
0.974418 0.517983 0.873657 Br
0.224559 0.517612 0.123939 Br
0.474660 0.017812 0.873763 Br
0.724602 0.018178 0.123944 Br
0.474347 0.517478 0.873774 Br
0.724442 0.517753 0.124250 Br
0.025685 0.767832 0.126115 Br
0.275488 0.767749 0.376059 Br
0.025465 0.267994 0.126142 Br
0.025546 0.767938 0.626041 Br
0.275566 0.768149 0.875919 Br
0.523676 0.769067 0.125824 Br
0.775194 0.768181 0.375842 Br
0.025179 0.268200 0.625973 Br
0.275654 0.267931 0.876032 Br
0.525577 0.268033 0.126268 Br
0.775418 0.268257 0.376393 Br
0.527222 0.763914 0.625751 Br
0.775837 0.768126 0.875767 Br
0.775753 0.267257 0.876249 Br
0.126170 0.231940 0.275598 Br
0.376098 0.233194 0.525115 Br
0.126182 0.732195 0.275721 Br
0.126283 0.231988 0.775384 Br
0.376196 0.232022 0.025541 Br
0.626184 0.231892 0.275678 Br
0.875958 0.232718 0.525900 Br
0.126048 0.732216 0.775414 Br
0.376050 0.732156 0.025309 Br
0.876429 0.731891 0.524787 Br
0.626314 0.232259 0.774604 Br
0.876086 0.232115 0.025562 Br
0.626257 0.732634 0.777470 Br
0.876105 0.731790 0.025602 Br
0.874545 0.767711 0.224317 Br
0.124892 0.767677 0.474932 Br
0.873889 0.268049 0.224405 Br
0.123839 0.268685 0.474628 Br
0.873778 0.768008 0.724469 Br
0.123872 0.767918 0.974344 Br
0.373627 0.767984 0.224620 Br
0.624916 0.768629 0.471511 Br
0.874035 0.267249 0.724457 Br
0.123939 0.267936 0.974539 Br
0.374042 0.268183 0.224688 Br
0.374024 0.767697 0.724549 Br
0.623903 0.767884 0.974793 Br
0.623929 0.267794 0.974560 Br
0.974560 0.232144 0.373956 Br
0.224679 0.232245 0.623779 Br
0.975005 0.733265 0.373989 Br
0.224532 0.731592 0.623786 Br
0.974527 0.232068 0.873827 Br
0.224623 0.231925 0.123979 Br
0.474308 0.232131 0.373889 Br
0.724570 0.231473 0.624074 Br
0.974536 0.732006 0.873827 Br
0.224429 0.732348 0.123798 Br
0.474427 0.231879 0.874069 Br
0.724475 0.231834 0.124118 Br
0.474484 0.731970 0.873626 Br
0.725244 0.732169 0.123611 Br
0.126184 0.018132 0.275533 Br
0.376305 0.015531 0.525775 Br
0.126012 0.517678 0.276125 Br
0.126191 0.018030 0.775401 Br
0.376171 0.018006 0.025436 Br
0.626161 0.017871 0.275229 Br
0.876045 0.017815 0.525432 Br
0.126174 0.517633 0.775004 Br
0.376156 0.517755 0.025499 Br
0.871757 0.517345 0.525395 Br
0.626119 0.018042 0.775340 Br
0.876090 0.017849 0.025417 Br
0.626242 0.515932 0.776533 Br
0.876054 0.518259 0.025725 Br
0.025508 0.982132 0.126128 Br
0.275530 0.981994 0.376186 Br
0.025539 0.482140 0.126231 Br
0.025589 0.982027 0.625990 Br
0.275583 0.982059 0.876011 Br
0.525452 0.981841 0.126165 Br
0.775567 0.982106 0.376157 Br
0.023630 0.481008 0.625208 Br
0.275682 0.481830 0.875739 Br
0.525490 0.482099 0.126673 Br
0.773122 0.478912 0.376818 Br
0.525657 0.981881 0.625905 Br
0.775447 0.981743 0.876028 Br
0.776056 0.482831 0.875844 Br
0.387038 0.374556 0.355007 Cs
0.635489 0.367571 0.617509 Cs
0.609184 0.633312 0.374532 Cs
0.350722 0.627425 0.640067 Cs
0.397701 0.372272 0.613738 Cs
0.646661 0.369124 0.361385 Cs
0.617653 0.625370 0.655091 Cs
0.360952 0.625285 0.389823 Cs
0.249990 0.249579 0.249876 Pb
0.499970 0.248858 0.499385 Pb
0.499699 0.249680 0.249595 Pb
0.249795 0.250205 0.499912 Pb
0.500084 0.499820 0.249820 Pb
0.248177 0.500709 0.499729 Pb
0.249595 0.499381 0.249513 Pb
0.494947 0.503767 0.502906 Pb
0.483648 0.623828 0.730678 Br
0.735649 0.624146 0.475318 Br
0.735935 0.374246 0.738225 Br
0.489699 0.375608 0.484401 Br
0.266634 0.624868 0.262385 Br
0.515424 0.375125 0.270287 Br
0.266537 0.376275 0.519875 Br
0.374069 0.481228 0.723134 Br
0.479248 0.520521 0.376227 Br
0.722739 0.516423 0.622568 Br
0.523415 0.263766 0.625965 Br
0.275594 0.268213 0.376180 Br
0.626144 0.739458 0.268680 Br
0.377784 0.725721 0.523099 Br
0.374127 0.267829 0.724653 Br
0.623885 0.264881 0.474542 Br
0.476360 0.728817 0.373927 Br
0.724852 0.731740 0.623498 Br
0.626230 0.513950 0.277429 Br
0.378935 0.525352 0.524832 Br
0.526307 0.479435 0.625929 Br
0.275684 0.481806 0.376564 Br
0.548030 0.616743 0.513071 Br
