Cs8 Pb8 Br23                            
   1.0000000000000000     
     8.4564889999999995    0.0000000000000000    8.0403009999999995
     0.0000000000000000   11.7298469999999995    0.0000000000000000
    -8.4564889999999995    0.0000000000000000    8.0403009999999995
   Cs   Pb   Br
     8     8    23
Direct
  0.2733010000000036  0.2465249999999983  0.2016270000000020
  0.7736719999999977  0.2353570000000005  0.7287770000000009
  0.7094179999999994  0.7631790000000009  0.2607629999999972
  0.2068579999999969  0.7547580000000025  0.7792450000000031
  0.2700850000000017  0.2383299999999977  0.7285600000000017
  0.7986659999999972  0.2452490000000012  0.2255529999999979
  0.7362589999999969  0.7600839999999991  0.7857109999999992
  0.2233530000000030  0.7554779999999965  0.2917739999999966
  0.0034360000000007  0.9996280000000013  0.0027320000000017
  0.4969320000000010  0.9995309999999975  0.4982350000000011
  0.5008260000000035  0.9996429999999989  0.9982720000000000
  0.9970670000000013  0.9983489999999975  0.4993490000000023
  0.5015780000000021  0.5010210000000015  0.0039549999999977
  0.0033570000000012  0.5010070000000013  0.5031499999999980
  0.0028429999999986  0.5007560000000026  0.0025139999999979
  0.4875869999999978  0.5016960000000026  0.4938750000000027
  0.4796550000000011  0.7479179999999985  0.9563130000000015
  0.9611459999999994  0.7474630000000033  0.4635010000000008
  0.9775130000000019  0.2506169999999983  0.9730920000000012
  0.4543589999999966  0.2528020000000026  0.4759730000000033
  0.0326329999999970  0.7499830000000003  0.0339579999999984
  0.5415350000000032  0.7470140000000001  0.5248229999999978
  0.5344470000000001  0.2515089999999987  0.0300780000000032
  0.0129429999999999  0.2511399999999995  0.5341790000000017
  0.2534300000000016  0.4677369999999996  0.9452969999999965
  0.4543439999999990  0.5367559999999969  0.2452550000000002
  0.9475210000000018  0.5326200000000014  0.7495759999999976
  0.5448669999999964  0.0313919999999968  0.7504840000000002
  0.0521010000000004  0.0351390000000009  0.2534940000000034
  0.7548109999999966  0.9765650000000008  0.0444060000000022
  0.2495830000000012  0.9603579999999994  0.5490560000000002
  0.2503230000000016  0.0304199999999994  0.9517529999999965
  0.7445570000000004  0.0345950000000030  0.4494600000000020
  0.4488380000000021  0.9654340000000019  0.2460049999999967
  0.9565150000000031  0.9703039999999987  0.7481700000000018
  0.7550609999999978  0.5295419999999993  0.0533000000000001
  0.2483909999999980  0.5354829999999993  0.5599270000000018
  0.0556959999999975  0.4653330000000011  0.2572430000000026
  0.6528089999999978  0.4667869999999965  0.6038870000000003

  0.00000000E+00  0.00000000E+00  0.00000000E+00
  0.00000000E+00  0.00000000E+00  0.00000000E+00
  0.00000000E+00  0.00000000E+00  0.00000000E+00
  0.00000000E+00  0.00000000E+00  0.00000000E+00
  0.00000000E+00  0.00000000E+00  0.00000000E+00
  0.00000000E+00  0.00000000E+00  0.00000000E+00
  0.00000000E+00  0.00000000E+00  0.00000000E+00
  0.00000000E+00  0.00000000E+00  0.00000000E+00
  0.00000000E+00  0.00000000E+00  0.00000000E+00
  0.00000000E+00  0.00000000E+00  0.00000000E+00
  0.00000000E+00  0.00000000E+00  0.00000000E+00
  0.00000000E+00  0.00000000E+00  0.00000000E+00
  0.00000000E+00  0.00000000E+00  0.00000000E+00
  0.00000000E+00  0.00000000E+00  0.00000000E+00
  0.00000000E+00  0.00000000E+00  0.00000000E+00
  0.00000000E+00  0.00000000E+00  0.00000000E+00
  0.00000000E+00  0.00000000E+00  0.00000000E+00
  0.00000000E+00  0.00000000E+00  0.00000000E+00
  0.00000000E+00  0.00000000E+00  0.00000000E+00
  0.00000000E+00  0.00000000E+00  0.00000000E+00
  0.00000000E+00  0.00000000E+00  0.00000000E+00
  0.00000000E+00  0.00000000E+00  0.00000000E+00
  0.00000000E+00  0.00000000E+00  0.00000000E+00
  0.00000000E+00  0.00000000E+00  0.00000000E+00
  0.00000000E+00  0.00000000E+00  0.00000000E+00
  0.00000000E+00  0.00000000E+00  0.00000000E+00
  0.00000000E+00  0.00000000E+00  0.00000000E+00
  0.00000000E+00  0.00000000E+00  0.00000000E+00
  0.00000000E+00  0.00000000E+00  0.00000000E+00
  0.00000000E+00  0.00000000E+00  0.00000000E+00
  0.00000000E+00  0.00000000E+00  0.00000000E+00
  0.00000000E+00  0.00000000E+00  0.00000000E+00
  0.00000000E+00  0.00000000E+00  0.00000000E+00
  0.00000000E+00  0.00000000E+00  0.00000000E+00
  0.00000000E+00  0.00000000E+00  0.00000000E+00
  0.00000000E+00  0.00000000E+00  0.00000000E+00
  0.00000000E+00  0.00000000E+00  0.00000000E+00
  0.00000000E+00  0.00000000E+00  0.00000000E+00
  0.00000000E+00  0.00000000E+00  0.00000000E+00
