Cs8 Pb8 Br23
1.0
8.456489 0.000000 8.040301
0.000000 11.729847 0.000000
-8.456489 0.000000 8.040301
Cs Pb Br
8 8 23
direct
0.273301 0.246525 0.201627 Cs
0.773672 0.235357 0.728777 Cs
0.709418 0.763179 0.260763 Cs
0.206858 0.754758 0.779245 Cs
0.270085 0.238330 0.728560 Cs
0.798666 0.245249 0.225553 Cs
0.736259 0.760084 0.785711 Cs
0.223353 0.755478 0.291774 Cs
0.003436 -0.000372 0.002732 Pb
0.496932 -0.000469 0.498235 Pb
0.500826 -0.000357 -0.001728 Pb
-0.002933 -0.001651 0.499349 Pb
0.501578 0.501021 0.003955 Pb
0.003357 0.501007 0.503150 Pb
0.002843 0.500756 0.002514 Pb
0.487587 0.501696 0.493875 Pb
0.479655 0.747918 0.956313 Br
0.961146 0.747463 0.463501 Br
0.977513 0.250617 0.973092 Br
0.454359 0.252802 0.475973 Br
0.032633 0.749983 0.033958 Br
0.541535 0.747014 0.524823 Br
0.534447 0.251509 0.030078 Br
0.012943 0.251140 0.534179 Br
0.253430 0.467737 0.945297 Br
0.454344 0.536756 0.245255 Br
0.947521 0.532620 0.749576 Br
0.544867 0.031392 0.750484 Br
0.052101 0.035139 0.253494 Br
0.754811 0.976565 0.044406 Br
0.249583 0.960358 0.549056 Br
0.250323 0.030420 0.951753 Br
0.744557 0.034595 0.449460 Br
0.448838 0.965434 0.246005 Br
0.956515 0.970304 0.748170 Br
0.755061 0.529542 0.053300 Br
0.248391 0.535483 0.559927 Br
0.055696 0.465333 0.257243 Br
0.652809 0.466787 0.603887 Br
