Cs8 Pb8 Br24                            
   1.0000000000000000     
    11.7353520000000007    0.0000000000000000    0.0000000000000000
     0.0000000000000000   11.7353520000000007    0.0000000000000000
     0.0000000000000000    0.0000000000000000   11.7353520000000007
   Cs   Pb   Br
     8     8    24
Direct
  0.2500000000000000  0.2500000000000000  0.2500000000000000
  0.2500000000000000  0.2500000000000000  0.7500000000000000
  0.2500000000000000  0.7500000000000000  0.2500000000000000
  0.2500000000000000  0.7500000000000000  0.7500000000000000
  0.7500000000000000  0.2500000000000000  0.2500000000000000
  0.7500000000000000  0.2500000000000000  0.7500000000000000
  0.7500000000000000  0.7500000000000000  0.2500000000000000
  0.7500000000000000  0.7500000000000000  0.7500000000000000
  0.0000000000000000  0.0000000000000000  0.0000000000000000
  0.0000000000000000  0.0000000000000000  0.5000000000000000
  0.0000000000000000  0.5000000000000000  0.0000000000000000
  0.0000000000000000  0.5000000000000000  0.5000000000000000
  0.5000000000000000  0.0000000000000000  0.0000000000000000
  0.5000000000000000  0.0000000000000000  0.5000000000000000
  0.5000000000000000  0.5000000000000000  0.0000000000000000
  0.5000000000000000  0.5000000000000000  0.5000000000000000
  0.9549999999999983  0.2500000000000000  0.0499999999999972
  0.9549999999999983  0.2500000000000000  0.4500000000000028
  0.0450000000000017  0.7500000000000000  0.9500000000000028
  0.0450000000000017  0.7500000000000000  0.5499999999999972
  0.5450000000000017  0.2500000000000000  0.9500000000000028
  0.5450000000000017  0.2500000000000000  0.5499999999999972
  0.4549999999999983  0.7500000000000000  0.0499999999999972
  0.4549999999999983  0.7500000000000000  0.4500000000000028
  0.0499999999999972  0.9500000000000028  0.2500000000000000
  0.9500000000000028  0.0499999999999972  0.7500000000000000
  0.9500000000000028  0.5499999999999972  0.2500000000000000
  0.0499999999999972  0.4500000000000028  0.7500000000000000
  0.4500000000000028  0.0499999999999972  0.2500000000000000
  0.5499999999999972  0.9500000000000028  0.7500000000000000
  0.5499999999999972  0.4500000000000028  0.2500000000000000
  0.4500000000000028  0.5499999999999972  0.7500000000000000
  0.2500000000000000  0.0450000000000017  0.9500000000000028
  0.2500000000000000  0.0450000000000017  0.5499999999999972
  0.2500000000000000  0.4549999999999983  0.0499999999999972
  0.2500000000000000  0.4549999999999983  0.4500000000000028
  0.7500000000000000  0.9549999999999983  0.0499999999999972
  0.7500000000000000  0.9549999999999983  0.4500000000000028
  0.7500000000000000  0.5450000000000017  0.9500000000000028
  0.7500000000000000  0.5450000000000017  0.5499999999999972

  0.00000000E+00  0.00000000E+00  0.00000000E+00
  0.00000000E+00  0.00000000E+00  0.00000000E+00
  0.00000000E+00  0.00000000E+00  0.00000000E+00
  0.00000000E+00  0.00000000E+00  0.00000000E+00
  0.00000000E+00  0.00000000E+00  0.00000000E+00
  0.00000000E+00  0.00000000E+00  0.00000000E+00
  0.00000000E+00  0.00000000E+00  0.00000000E+00
  0.00000000E+00  0.00000000E+00  0.00000000E+00
  0.00000000E+00  0.00000000E+00  0.00000000E+00
  0.00000000E+00  0.00000000E+00  0.00000000E+00
  0.00000000E+00  0.00000000E+00  0.00000000E+00
  0.00000000E+00  0.00000000E+00  0.00000000E+00
  0.00000000E+00  0.00000000E+00  0.00000000E+00
  0.00000000E+00  0.00000000E+00  0.00000000E+00
  0.00000000E+00  0.00000000E+00  0.00000000E+00
  0.00000000E+00  0.00000000E+00  0.00000000E+00
  0.00000000E+00  0.00000000E+00  0.00000000E+00
  0.00000000E+00  0.00000000E+00  0.00000000E+00
  0.00000000E+00  0.00000000E+00  0.00000000E+00
  0.00000000E+00  0.00000000E+00  0.00000000E+00
  0.00000000E+00  0.00000000E+00  0.00000000E+00
  0.00000000E+00  0.00000000E+00  0.00000000E+00
  0.00000000E+00  0.00000000E+00  0.00000000E+00
  0.00000000E+00  0.00000000E+00  0.00000000E+00
  0.00000000E+00  0.00000000E+00  0.00000000E+00
  0.00000000E+00  0.00000000E+00  0.00000000E+00
  0.00000000E+00  0.00000000E+00  0.00000000E+00
  0.00000000E+00  0.00000000E+00  0.00000000E+00
  0.00000000E+00  0.00000000E+00  0.00000000E+00
  0.00000000E+00  0.00000000E+00  0.00000000E+00
  0.00000000E+00  0.00000000E+00  0.00000000E+00
  0.00000000E+00  0.00000000E+00  0.00000000E+00
  0.00000000E+00  0.00000000E+00  0.00000000E+00
  0.00000000E+00  0.00000000E+00  0.00000000E+00
  0.00000000E+00  0.00000000E+00  0.00000000E+00
  0.00000000E+00  0.00000000E+00  0.00000000E+00
  0.00000000E+00  0.00000000E+00  0.00000000E+00
  0.00000000E+00  0.00000000E+00  0.00000000E+00
  0.00000000E+00  0.00000000E+00  0.00000000E+00
  0.00000000E+00  0.00000000E+00  0.00000000E+00
