Cs7 Pb8 Br24
1.0
8.420018 0.000000 8.077981
0.000000 11.763808 0.000000
-8.420018 0.000000 8.077981
Cs Pb Br Cs
6 8 24 1
direct
0.269675 0.250000 0.203061 Cs
0.777522 0.250000 0.707754 Cs
0.199743 0.750000 0.770783 Cs
0.294642 0.250000 0.741915 Cs
0.728101 0.750000 0.782889 Cs
0.229007 0.750000 0.295017 Cs
-0.006131 0.001054 0.006209 Pb
0.500841 0.002683 0.499369 Pb
0.500139 -0.001581 -0.000103 Pb
-0.000527 0.003576 0.499138 Pb
0.500139 0.501581 -0.000104 Pb
-0.000527 0.496430 0.499139 Pb
-0.006131 0.498944 0.006210 Pb
0.500842 0.497316 0.499369 Pb
0.463303 0.750000 0.948593 Br
0.971269 0.750001 0.471022 Br
0.974206 0.249999 0.963758 Br
0.446545 0.249999 0.472940 Br
0.040344 0.749999 0.031873 Br
0.531427 0.749999 0.528765 Br
0.517579 0.250000 0.021742 Br
0.041952 0.250002 0.547182 Br
0.245555 0.472179 0.951425 Br
0.747058 0.465710 0.452403 Br
0.450307 0.538398 0.246898 Br
0.950865 0.534431 0.749354 Br
0.552627 0.036534 0.750198 Br
0.064836 0.022261 0.253836 Br
0.748305 0.943248 0.040745 Br
0.251358 0.963775 0.553333 Br
0.245555 0.027820 0.951425 Br
0.747058 0.034289 0.452403 Br
0.450306 0.961602 0.246898 Br
0.950865 0.965569 0.749354 Br
0.748304 0.556752 0.040745 Br
0.251358 0.536226 0.553333 Br
0.552627 0.463466 0.750197 Br
0.064836 0.477739 0.253836 Br
0.712452 0.750000 0.279220 Cs
