Cs8 Pb8 Br23                            
   1.0000000000000000     
     8.4564889999999995    0.0000000000000000    8.0403009999999995
     0.0000000000000000   11.7298469999999995    0.0000000000000000
    -8.4564889999999995    0.0000000000000000    8.0403009999999995
   Cs   Pb   Br
     8     8    23
Direct
  0.2582319999999996  0.2399720000000016  0.1962270000000004
  0.7724350000000015  0.2436030000000002  0.7157309999999981
  0.7510490000000019  0.7590420000000009  0.2609500000000011
  0.2025610000000029  0.7520430000000005  0.7725349999999978
  0.2973119999999980  0.2508339999999976  0.7325730000000021
  0.7856799999999993  0.2456540000000018  0.2275490000000033
  0.7347710000000021  0.7523279999999986  0.8049639999999982
  0.2176469999999995  0.7539149999999992  0.2863169999999968
  0.9986689999999996  0.0010290000000026  0.9983229999999992
  0.4994530000000026  0.0031180000000006  0.4902379999999980
  0.4958710000000011  0.0009220000000028  0.9958379999999991
  0.0038100000000014  0.0004630000000034  0.5040819999999968
  0.5005590000000026  0.5045450000000002  0.0025819999999968
  0.0050120000000007  0.4948789999999974  0.5009090000000000
  0.9999919999999989  0.4981069999999974  0.0026900000000012
  0.5041530000000023  0.4897679999999980  0.5047569999999979
  0.4682979999999972  0.7516210000000001  0.9566749999999971
  0.9770919999999990  0.7472119999999975  0.4827609999999964
  0.9655879999999968  0.2505769999999998  0.9746489999999994
  0.4579599999999999  0.2439570000000018  0.4582180000000022
  0.0211559999999977  0.7493649999999974  0.0281299999999973
  0.5219019999999972  0.2537019999999970  0.0331329999999994
  0.0349689999999967  0.2486049999999977  0.5477449999999990
  0.2473600000000005  0.4705160000000035  0.9524100000000004
  0.7509099999999975  0.4571589999999972  0.4574709999999982
  0.7466709999999992  0.5324609999999979  0.9523330000000030
  0.5467900000000014  0.0302859999999967  0.7434569999999994
  0.0400580000000019  0.0278449999999992  0.2541080000000022
  0.7489229999999978  0.9748009999999994  0.0430560000000000
  0.2553399999999968  0.9608890000000017  0.5470970000000008
  0.2442199999999985  0.0310630000000032  0.9422300000000021
  0.7473669999999970  0.0292760000000030  0.4493229999999997
  0.4409160000000014  0.9702119999999965  0.2410679999999985
  0.9453010000000006  0.9679829999999967  0.7493219999999994
  0.7516529999999975  0.5300099999999972  0.0550649999999990
  0.2577459999999974  0.5341600000000000  0.5532120000000020
  0.5541180000000026  0.4746250000000032  0.7623829999999998
  0.0516480000000001  0.4673170000000013  0.2552450000000022
  0.5986109999999982  0.6564449999999979  0.4663460000000015

  0.00000000E+00  0.00000000E+00  0.00000000E+00
  0.00000000E+00  0.00000000E+00  0.00000000E+00
  0.00000000E+00  0.00000000E+00  0.00000000E+00
  0.00000000E+00  0.00000000E+00  0.00000000E+00
  0.00000000E+00  0.00000000E+00  0.00000000E+00
  0.00000000E+00  0.00000000E+00  0.00000000E+00
  0.00000000E+00  0.00000000E+00  0.00000000E+00
  0.00000000E+00  0.00000000E+00  0.00000000E+00
  0.00000000E+00  0.00000000E+00  0.00000000E+00
  0.00000000E+00  0.00000000E+00  0.00000000E+00
  0.00000000E+00  0.00000000E+00  0.00000000E+00
  0.00000000E+00  0.00000000E+00  0.00000000E+00
  0.00000000E+00  0.00000000E+00  0.00000000E+00
  0.00000000E+00  0.00000000E+00  0.00000000E+00
  0.00000000E+00  0.00000000E+00  0.00000000E+00
  0.00000000E+00  0.00000000E+00  0.00000000E+00
  0.00000000E+00  0.00000000E+00  0.00000000E+00
  0.00000000E+00  0.00000000E+00  0.00000000E+00
  0.00000000E+00  0.00000000E+00  0.00000000E+00
  0.00000000E+00  0.00000000E+00  0.00000000E+00
  0.00000000E+00  0.00000000E+00  0.00000000E+00
  0.00000000E+00  0.00000000E+00  0.00000000E+00
  0.00000000E+00  0.00000000E+00  0.00000000E+00
  0.00000000E+00  0.00000000E+00  0.00000000E+00
  0.00000000E+00  0.00000000E+00  0.00000000E+00
  0.00000000E+00  0.00000000E+00  0.00000000E+00
  0.00000000E+00  0.00000000E+00  0.00000000E+00
  0.00000000E+00  0.00000000E+00  0.00000000E+00
  0.00000000E+00  0.00000000E+00  0.00000000E+00
  0.00000000E+00  0.00000000E+00  0.00000000E+00
  0.00000000E+00  0.00000000E+00  0.00000000E+00
  0.00000000E+00  0.00000000E+00  0.00000000E+00
  0.00000000E+00  0.00000000E+00  0.00000000E+00
  0.00000000E+00  0.00000000E+00  0.00000000E+00
  0.00000000E+00  0.00000000E+00  0.00000000E+00
  0.00000000E+00  0.00000000E+00  0.00000000E+00
  0.00000000E+00  0.00000000E+00  0.00000000E+00
  0.00000000E+00  0.00000000E+00  0.00000000E+00
  0.00000000E+00  0.00000000E+00  0.00000000E+00
