Cs8 Pb8 Br23
1.0
8.456489 0.000000 8.040301
0.000000 11.729847 0.000000
-8.456489 0.000000 8.040301
Cs Pb Br
8 8 23
direct
0.258232 0.239972 0.196227 Cs
0.772435 0.243603 0.715731 Cs
0.751049 0.759042 0.260950 Cs
0.202561 0.752043 0.772535 Cs
0.297312 0.250834 0.732573 Cs
0.785680 0.245654 0.227549 Cs
0.734771 0.752328 0.804964 Cs
0.217647 0.753915 0.286317 Cs
-0.001331 0.001029 -0.001677 Pb
0.499453 0.003118 0.490238 Pb
0.495871 0.000922 -0.004162 Pb
0.003810 0.000463 0.504082 Pb
0.500559 0.504545 0.002582 Pb
0.005012 0.494879 0.500909 Pb
-0.000008 0.498107 0.002690 Pb
0.504153 0.489768 0.504757 Pb
0.468298 0.751621 0.956675 Br
0.977092 0.747212 0.482761 Br
0.965588 0.250577 0.974649 Br
0.457960 0.243957 0.458218 Br
0.021156 0.749365 0.028130 Br
0.521902 0.253702 0.033133 Br
0.034969 0.248605 0.547745 Br
0.247360 0.470516 0.952410 Br
0.750910 0.457159 0.457471 Br
0.746671 0.532461 -0.047667 Br
0.546790 0.030286 0.743457 Br
0.040058 0.027845 0.254108 Br
0.748923 0.974801 0.043056 Br
0.255340 0.960889 0.547097 Br
0.244220 0.031063 0.942230 Br
0.747367 0.029276 0.449323 Br
0.440916 0.970212 0.241068 Br
0.945301 0.967983 0.749322 Br
0.751653 0.530010 0.055065 Br
0.257746 0.534160 0.553212 Br
0.554118 0.474625 0.762383 Br
0.051648 0.467317 0.255245 Br
0.598611 0.656445 0.466346 Br
