Cs8 Pb7 Br24
1.0
8.420018 0.000000 8.077981
0.000000 11.763808 0.000000
-8.420018 0.000000 8.077981
Cs Pb Br Pb
8 6 24 1
direct
0.256721 0.270059 0.201727 Cs
0.781055 0.262355 0.719768 Cs
0.713452 0.736022 0.264452 Cs
0.199804 0.735167 0.780563 Cs
0.286556 0.263981 0.735549 Cs
0.800195 0.264836 0.219445 Cs
0.743278 0.729941 0.798259 Cs
0.218947 0.737639 0.280229 Cs
0.000003 0.000009 -0.000003 Pb
0.499999 -0.000002 0.499998 Pb
0.499992 -0.000002 -0.000001 Pb
0.000006 0.000007 0.499999 Pb
0.499935 0.499996 0.000012 Pb
0.000001 0.500006 0.499992 Pb
0.475455 0.752043 0.951927 Br
0.964602 0.752208 0.460463 Br
0.978725 0.248346 0.970971 Br
0.450473 0.249135 0.467843 Br
0.021274 0.751650 0.029034 Br
0.549528 0.750840 0.532150 Br
0.524536 0.247955 0.048060 Br
0.035408 0.247799 0.539539 Br
0.250505 0.471666 0.955639 Br
0.747431 0.458314 0.453720 Br
0.453714 0.539230 0.249232 Br
0.961256 0.526743 0.747212 Br
0.551740 0.047143 0.752301 Br
0.054781 0.038489 0.253466 Br
0.750837 0.970858 0.056153 Br
0.251827 0.955295 0.553809 Br
0.249162 0.029144 0.943843 Br
0.748182 0.044707 0.446198 Br
0.448259 0.952852 0.247697 Br
0.945216 0.961512 0.746537 Br
0.749527 0.528333 0.044368 Br
0.252582 0.541691 0.546288 Br
0.546287 0.460767 0.750765 Br
0.038756 0.473259 0.252810 Br
0.374991 0.500005 0.625000 Pb
