Cs8 Pb8 Br23                            
   1.0000000000000000     
     8.4564889999999995    0.0000000000000000    8.0403009999999995
     0.0000000000000000   11.7298469999999995    0.0000000000000000
    -8.4564889999999995    0.0000000000000000    8.0403009999999995
   Cs   Pb   Br
     8     8    23
Direct
  0.2630290000000031  0.2420710000000028  0.1977910000000023
  0.7705989999999971  0.2429320000000033  0.7141000000000020
  0.7379570000000015  0.7562479999999994  0.2626530000000002
  0.2074980000000011  0.7539670000000029  0.7731089999999980
  0.2955100000000002  0.2503820000000019  0.7323850000000007
  0.7864069999999970  0.2460779999999971  0.2277399999999972
  0.7340149999999994  0.7528099999999966  0.8043639999999996
  0.2190530000000024  0.7537680000000009  0.2856659999999991
  0.9990870000000029  0.0012550000000005  0.9988090000000014
  0.4993430000000032  0.0038750000000007  0.4929690000000022
  0.4973540000000014  0.0006529999999998  0.9975719999999981
  0.0026909999999987  0.0005480000000020  0.5028059999999996
  0.5002550000000028  0.5031579999999991  0.0018039999999999
  0.0040430000000029  0.4960280000000026  0.4979719999999972
  0.0000769999999974  0.4982419999999976  0.0034419999999997
  0.5024340000000009  0.4913079999999965  0.5029279999999972
  0.4701189999999968  0.7511349999999979  0.9597539999999967
  0.9742919999999984  0.7476249999999993  0.4773399999999981
  0.9645319999999984  0.2510469999999998  0.9723619999999968
  0.4588040000000007  0.2459559999999996  0.4615190000000027
  0.0238480000000010  0.7492570000000001  0.0265040000000027
  0.5246550000000028  0.2526360000000025  0.0330569999999994
  0.0325569999999971  0.2497210000000010  0.5466780000000000
  0.2469740000000016  0.4702059999999975  0.9507240000000010
  0.7499180000000010  0.4604890000000026  0.4559899999999999
  0.6478549999999998  0.5347780000000029  0.0516760000000005
  0.5468690000000009  0.0290910000000011  0.7463320000000024
  0.0429180000000002  0.0310399999999973  0.2535820000000015
  0.7500849999999986  0.9727490000000003  0.0455680000000029
  0.2550760000000025  0.9619799999999969  0.5467610000000036
  0.2453519999999969  0.0318809999999985  0.9449990000000028
  0.7472860000000026  0.0295559999999995  0.4494419999999977
  0.4446319999999986  0.9667090000000016  0.2442619999999991
  0.9468859999999992  0.9673090000000002  0.7487110000000001
  0.7522370000000009  0.5307049999999975  0.0537860000000023
  0.2559809999999985  0.5356809999999967  0.5525599999999997
  0.5543610000000001  0.4730879999999971  0.7588890000000035
  0.0521880000000010  0.4655980000000000  0.2536529999999999
  0.6459350000000015  0.6510829999999999  0.5242319999999978

  0.00000000E+00  0.00000000E+00  0.00000000E+00
  0.00000000E+00  0.00000000E+00  0.00000000E+00
  0.00000000E+00  0.00000000E+00  0.00000000E+00
  0.00000000E+00  0.00000000E+00  0.00000000E+00
  0.00000000E+00  0.00000000E+00  0.00000000E+00
  0.00000000E+00  0.00000000E+00  0.00000000E+00
  0.00000000E+00  0.00000000E+00  0.00000000E+00
  0.00000000E+00  0.00000000E+00  0.00000000E+00
  0.00000000E+00  0.00000000E+00  0.00000000E+00
  0.00000000E+00  0.00000000E+00  0.00000000E+00
  0.00000000E+00  0.00000000E+00  0.00000000E+00
  0.00000000E+00  0.00000000E+00  0.00000000E+00
  0.00000000E+00  0.00000000E+00  0.00000000E+00
  0.00000000E+00  0.00000000E+00  0.00000000E+00
  0.00000000E+00  0.00000000E+00  0.00000000E+00
  0.00000000E+00  0.00000000E+00  0.00000000E+00
  0.00000000E+00  0.00000000E+00  0.00000000E+00
  0.00000000E+00  0.00000000E+00  0.00000000E+00
  0.00000000E+00  0.00000000E+00  0.00000000E+00
  0.00000000E+00  0.00000000E+00  0.00000000E+00
  0.00000000E+00  0.00000000E+00  0.00000000E+00
  0.00000000E+00  0.00000000E+00  0.00000000E+00
  0.00000000E+00  0.00000000E+00  0.00000000E+00
  0.00000000E+00  0.00000000E+00  0.00000000E+00
  0.00000000E+00  0.00000000E+00  0.00000000E+00
  0.00000000E+00  0.00000000E+00  0.00000000E+00
  0.00000000E+00  0.00000000E+00  0.00000000E+00
  0.00000000E+00  0.00000000E+00  0.00000000E+00
  0.00000000E+00  0.00000000E+00  0.00000000E+00
  0.00000000E+00  0.00000000E+00  0.00000000E+00
  0.00000000E+00  0.00000000E+00  0.00000000E+00
  0.00000000E+00  0.00000000E+00  0.00000000E+00
  0.00000000E+00  0.00000000E+00  0.00000000E+00
  0.00000000E+00  0.00000000E+00  0.00000000E+00
  0.00000000E+00  0.00000000E+00  0.00000000E+00
  0.00000000E+00  0.00000000E+00  0.00000000E+00
  0.00000000E+00  0.00000000E+00  0.00000000E+00
  0.00000000E+00  0.00000000E+00  0.00000000E+00
  0.00000000E+00  0.00000000E+00  0.00000000E+00
