Cs4 Pb4 Br12                            
   1.0000000000000000     
     8.4118011223529106    0.0000000000000000    0.0000000000000003
     0.0000000000000000   11.7269457921467044    0.0000000000000000
     0.0000000000000002    0.0000000000000000    7.9484543141244526
   Cs   Pb   Br
     4     4    12
Direct
  0.0690668347333840  0.2500000000000000  0.4768736497172839
  0.4309331652666160  0.7500000000000000  0.9768736497172839
  0.5690668347333840  0.2500000000000000  0.0231263502827161
  0.9309331652666160  0.7500000000000000  0.5231263502827161
  0.0000000000000000  0.0000000000000000  0.0000000000000000
  0.5000000000000000  0.0000000000000000  0.5000000000000000
  0.5000000000000000  0.5000000000000000  0.5000000000000000
  0.0000000000000000  0.5000000000000000  0.0000000000000000
  0.5034558101110491  0.7500000000000000  0.4332824354816793
  0.9965441898889509  0.2500000000000000  0.9332824354816793
  0.0034558101110491  0.7500000000000000  0.0667175645183207
  0.4965441898889509  0.2500000000000000  0.5667175645183207
  0.3023445533448808  0.4655213700147343  0.1918486659246099
  0.1976554466551192  0.5344786299852657  0.6918486659246099
  0.8023445533448808  0.0344786299852657  0.3081513340753901
  0.6976554466551192  0.9655213700147343  0.8081513340753901
  0.3023445533448808  0.0344786299852657  0.1918486659246099
  0.1976554466551192  0.9655213700147343  0.6918486659246099
  0.6976554466551192  0.5344786299852657  0.8081513340753901
  0.8023445533448808  0.4655213700147343  0.3081513340753901

  0.00000000E+00  0.00000000E+00  0.00000000E+00
  0.00000000E+00  0.00000000E+00  0.00000000E+00
  0.00000000E+00  0.00000000E+00  0.00000000E+00
  0.00000000E+00  0.00000000E+00  0.00000000E+00
  0.00000000E+00  0.00000000E+00  0.00000000E+00
  0.00000000E+00  0.00000000E+00  0.00000000E+00
  0.00000000E+00  0.00000000E+00  0.00000000E+00
  0.00000000E+00  0.00000000E+00  0.00000000E+00
  0.00000000E+00  0.00000000E+00  0.00000000E+00
  0.00000000E+00  0.00000000E+00  0.00000000E+00
  0.00000000E+00  0.00000000E+00  0.00000000E+00
  0.00000000E+00  0.00000000E+00  0.00000000E+00
  0.00000000E+00  0.00000000E+00  0.00000000E+00
  0.00000000E+00  0.00000000E+00  0.00000000E+00
  0.00000000E+00  0.00000000E+00  0.00000000E+00
  0.00000000E+00  0.00000000E+00  0.00000000E+00
  0.00000000E+00  0.00000000E+00  0.00000000E+00
  0.00000000E+00  0.00000000E+00  0.00000000E+00
  0.00000000E+00  0.00000000E+00  0.00000000E+00
  0.00000000E+00  0.00000000E+00  0.00000000E+00
