Cs4 Pb4 Br12                            
   1.0000000000000000     
     8.4118011223529106    0.0000000000000000    0.0000000000000003
     0.0000000000000000   11.7269457921467044    0.0000000000000000
     0.0000000000000002    0.0000000000000000    7.9484543141244526
   Cs   Pb   Br
     4     4    12
Direct
  0.0690668347333871  0.2500000000000000  0.4768736497172852
  0.4309331652666129  0.7500000000000000  0.9768736497172853
  0.5690668347333873  0.2500000000000000  0.0231263502827148
  0.9309331652666127  0.7500000000000000  0.5231263502827147
  0.0000000000000000 -0.0000000000000000  0.0000000000000000
  0.5000000000000000 -0.0000000000000000  0.5000000000000000
  0.5000000000000000  0.5000000000000000  0.5000000000000000
  0.0000000000000000  0.5000000000000000  0.0000000000000000
  0.5034558101110500  0.7500000000000000  0.4332824354816815
  0.9965441898889500  0.2500000000000000  0.9332824354816814
  0.0034558101110500  0.7500000000000000  0.0667175645183186
  0.4965441898889499  0.2500000000000000  0.5667175645183186
  0.3023445533448818  0.4655213700147354  0.1918486659246077
  0.1976554466551181  0.5344786299852647  0.6918486659246080
  0.8023445533448818  0.0344786299852646  0.3081513340753924
  0.6976554466551182  0.9655213700147353  0.8081513340753920
  0.3023445533448818  0.0344786299852646  0.1918486659246077
  0.1976554466551181  0.9655213700147353  0.6918486659246080
  0.6976554466551182  0.5344786299852647  0.8081513340753920
  0.8023445533448818  0.4655213700147354  0.3081513340753924

  0.00000000E+00  0.00000000E+00  0.00000000E+00
  0.00000000E+00  0.00000000E+00  0.00000000E+00
  0.00000000E+00  0.00000000E+00  0.00000000E+00
  0.00000000E+00  0.00000000E+00  0.00000000E+00
  0.00000000E+00  0.00000000E+00  0.00000000E+00
  0.00000000E+00  0.00000000E+00  0.00000000E+00
  0.00000000E+00  0.00000000E+00  0.00000000E+00
  0.00000000E+00  0.00000000E+00  0.00000000E+00
  0.00000000E+00  0.00000000E+00  0.00000000E+00
  0.00000000E+00  0.00000000E+00  0.00000000E+00
  0.00000000E+00  0.00000000E+00  0.00000000E+00
  0.00000000E+00  0.00000000E+00  0.00000000E+00
  0.00000000E+00  0.00000000E+00  0.00000000E+00
  0.00000000E+00  0.00000000E+00  0.00000000E+00
  0.00000000E+00  0.00000000E+00  0.00000000E+00
  0.00000000E+00  0.00000000E+00  0.00000000E+00
  0.00000000E+00  0.00000000E+00  0.00000000E+00
  0.00000000E+00  0.00000000E+00  0.00000000E+00
  0.00000000E+00  0.00000000E+00  0.00000000E+00
  0.00000000E+00  0.00000000E+00  0.00000000E+00
