Cs4 Pb4 Br12                            
   1.0000000000000000     
     7.9705903291070213    0.0000000000000000    0.0000000000000000
     0.0000000000000000   12.2343600960251990    0.0000000000000000
     0.0000000000000000    0.0000000000000000    8.4010997758586825
   Cs   Pb   Br
     4     4    12
Direct
  0.0136205460576591  0.2500000000000000  0.5107395250570477
  0.4863794539423409  0.7500000000000000  0.0107395250570477
  0.5136205460576591  0.2500000000000000  0.9892604749429523
  0.9863794539423409  0.7500000000000000  0.4892604749429523
  0.0000000000000000  0.0000000000000000  0.0000000000000000
  0.5000000000000000  0.0000000000000000  0.5000000000000000
  0.5000000000000000  0.5000000000000000  0.5000000000000000
  0.0000000000000000  0.5000000000000000  0.0000000000000000
  0.5006193070547553  0.7500000000000000  0.4727264419712824
  0.9993806929452447  0.2500000000000000  0.9727264419712824
  0.0006193070547553  0.7500000000000000  0.0272735580287176
  0.4993806929452447  0.2500000000000000  0.5272735580287176
  0.3167169833459269  0.4878793775479551  0.1891578702638839
  0.1832830166540731  0.5121206224520449  0.6891578702638839
  0.8167169833459269  0.0121206224520449  0.3108421297361161
  0.6832830166540731  0.9878793775479551  0.8108421297361161
  0.3167169833459269  0.0121206224520449  0.1891578702638839
  0.1832830166540731  0.9878793775479551  0.6891578702638839
  0.6832830166540731  0.5121206224520449  0.8108421297361161
  0.8167169833459269  0.4878793775479551  0.3108421297361161

  0.00000000E+00  0.00000000E+00  0.00000000E+00
  0.00000000E+00  0.00000000E+00  0.00000000E+00
  0.00000000E+00  0.00000000E+00  0.00000000E+00
  0.00000000E+00  0.00000000E+00  0.00000000E+00
  0.00000000E+00  0.00000000E+00  0.00000000E+00
  0.00000000E+00  0.00000000E+00  0.00000000E+00
  0.00000000E+00  0.00000000E+00  0.00000000E+00
  0.00000000E+00  0.00000000E+00  0.00000000E+00
  0.00000000E+00  0.00000000E+00  0.00000000E+00
  0.00000000E+00  0.00000000E+00  0.00000000E+00
  0.00000000E+00  0.00000000E+00  0.00000000E+00
  0.00000000E+00  0.00000000E+00  0.00000000E+00
  0.00000000E+00  0.00000000E+00  0.00000000E+00
  0.00000000E+00  0.00000000E+00  0.00000000E+00
  0.00000000E+00  0.00000000E+00  0.00000000E+00
  0.00000000E+00  0.00000000E+00  0.00000000E+00
  0.00000000E+00  0.00000000E+00  0.00000000E+00
  0.00000000E+00  0.00000000E+00  0.00000000E+00
  0.00000000E+00  0.00000000E+00  0.00000000E+00
  0.00000000E+00  0.00000000E+00  0.00000000E+00
