Cs8 Pb8 Br24
1.0
11.735352 0.000000 0.000000
0.000000 11.735352 0.000000
0.000000 0.000000 11.735352
Cs Pb Br
8 8 24
direct
0.250000 0.250000 0.250000 Cs
0.250000 0.250000 0.750000 Cs
0.250000 0.750000 0.250000 Cs
0.250000 0.750000 0.750000 Cs
0.750000 0.250000 0.250000 Cs
0.750000 0.250000 0.750000 Cs
0.750000 0.750000 0.250000 Cs
0.750000 0.750000 0.750000 Cs
0.000000 0.000000 0.000000 Pb
0.000000 0.000000 0.500000 Pb
0.000000 0.500000 0.000000 Pb
0.000000 0.500000 0.500000 Pb
0.500000 0.000000 0.000000 Pb
0.500000 0.000000 0.500000 Pb
0.500000 0.500000 0.000000 Pb
0.500000 0.500000 0.500000 Pb
0.921250 0.250000 0.000000 Br
0.078750 0.250000 0.500000 Br
0.078750 0.750000 0.000000 Br
0.921250 0.750000 0.500000 Br
0.578750 0.250000 0.000000 Br
0.421250 0.250000 0.500000 Br
0.421250 0.750000 0.000000 Br
0.578750 0.750000 0.500000 Br
0.000000 0.000000 0.250000 Br
0.000000 0.000000 0.750000 Br
0.000000 0.500000 0.250000 Br
0.000000 0.500000 0.750000 Br
0.500000 0.000000 0.250000 Br
0.500000 0.000000 0.750000 Br
0.500000 0.500000 0.250000 Br
0.500000 0.500000 0.750000 Br
0.250000 0.078750 0.000000 Br
0.250000 0.921250 0.500000 Br
0.250000 0.421250 0.000000 Br
0.250000 0.578750 0.500000 Br
0.750000 0.921250 0.000000 Br
0.750000 0.078750 0.500000 Br
0.750000 0.578750 0.000000 Br
0.750000 0.421250 0.500000 Br
