Cs63 Pb64 Br192
1.0
16.840035 0.000000 16.155961
0.000000 23.527616 0.000000
-16.840035 0.000000 16.155961
Cs Pb Br Cs Pb Br
56 56 168 7 8 24
Selective Dynamics 
Direct
0.885998 0.875264 0.353789 F F F
0.136203 0.875356 0.603797 F F F
0.884475 0.375458 0.353686 F F F
0.137074 0.375302 0.603515 F F F
0.886173 0.875307 0.854047 F F F
0.136190 0.875271 0.103975 F F F
0.387206 0.875414 0.353695 F F F
0.636658 0.875797 0.603908 F F F
0.885739 0.375257 0.853939 F F F
0.137706 0.375355 0.106552 F F F
0.386161 0.875295 0.853931 F F F
0.636605 0.875246 0.105441 F F F
0.386116 0.375311 0.854986 F F F
0.636687 0.375559 0.110119 F F F
0.104490 0.126243 0.386240 F F F
0.354099 0.125551 0.636035 F F F
0.104249 0.624721 0.386231 F F F
0.103781 0.125469 0.886464 F F F
0.354559 0.125663 0.138039 F F F
0.606019 0.126247 0.388726 F F F
0.853145 0.125744 0.635842 F F F
0.104037 0.625119 0.886602 F F F
0.353894 0.625070 0.137010 F F F
0.853022 0.625202 0.635861 F F F
0.603755 0.125456 0.886388 F F F
0.853907 0.125981 0.136837 F F F
0.603713 0.625276 0.886467 F F F
0.853917 0.624729 0.136648 F F F
0.896331 0.875283 0.114344 F F F
0.146447 0.875310 0.364208 F F F
0.893714 0.375460 0.115124 F F F
0.146686 0.375543 0.364505 F F F
0.896513 0.875375 0.614046 F F F
0.146503 0.875267 0.864331 F F F
0.396750 0.875329 0.114497 F F F
0.646380 0.875374 0.363827 F F F
0.900237 0.375306 0.615045 F F F
0.146373 0.375272 0.864212 F F F
0.399367 0.375520 0.118270 F F F
0.396683 0.875379 0.614017 F F F
0.646658 0.875294 0.864397 F F F
0.646623 0.375264 0.864710 F F F
0.114377 0.125777 0.146969 F F F
0.364883 0.125906 0.396912 F F F
0.114429 0.624773 0.146813 F F F
0.114205 0.125562 0.646463 F F F
0.364193 0.125500 0.897038 F F F
0.614394 0.125430 0.146036 F F F
0.864354 0.124849 0.397214 F F F
0.114154 0.625069 0.646418 F F F
0.364307 0.625020 0.897161 F F F
0.614204 0.625502 0.145138 F F F
0.864620 0.625979 0.398265 F F F
0.614361 0.125979 0.646035 F F F
0.863893 0.125627 0.896790 F F F
0.863827 0.624891 0.896571 F F F
0.750202 0.749467 0.250308 F F F
0.000150 0.750521 0.500156 F F F
0.749537 0.252001 0.253743 F F F
0.000237 0.250634 0.500051 F F F
0.750073 0.750555 0.750175 F F F
0.000066 0.750194 0.000250 F F F
0.250262 0.750496 0.250320 F F F
0.500223 0.750511 0.500318 F F F
0.749952 0.250744 0.749882 F F F
0.000107 0.250744 0.000397 F F F
0.250048 0.750493 0.750167 F F F
0.500102 0.750599 0.000190 F F F
0.250133 0.250446 0.749963 F F F
0.500259 0.250673 0.000655 F F F
0.000069 0.750402 0.250167 F F F
0.250256 0.750540 0.500195 F F F
0.999911 0.250812 0.250364 F F F
0.000076 0.750477 0.750121 F F F
0.250238 0.750351 0.000298 F F F
0.500408 0.749624 0.250349 F F F
0.750262 0.750717 0.500295 F F F
0.000108 0.250510 0.750101 F F F
0.250500 0.250754 0.000498 F F F
0.749966 0.253041 0.499000 F F F
0.500272 0.750577 0.750154 F F F
0.750132 0.750426 0.000276 F F F
0.500362 0.250704 0.750211 F F F
0.749777 0.250483 0.001197 F F F
0.000037 0.000563 0.250152 F F F
0.250137 0.000781 0.500051 F F F
0.000060 0.500472 0.250331 F F F
0.000070 0.000574 0.750071 F F F
0.250230 0.000644 0.000301 F F F
0.500422 0.001204 0.250320 F F F
0.750142 0.000960 0.500102 F F F
0.000029 0.500580 0.750091 F F F
0.250508 0.499869 0.000669 F F F
0.750129 0.498559 0.499175 F F F
0.500142 0.000587 0.750124 F F F
0.750056 0.000544 0.000282 F F F
0.500636 0.500418 0.750314 F F F
0.749783 0.500415 0.001175 F F F
0.750093 0.001156 0.250371 F F F
0.000146 0.000734 0.500119 F F F
0.749641 0.499378 0.253812 F F F
0.000327 0.500439 0.500158 F F F
0.750120 0.000730 0.750192 F F F
0.000121 0.000609 0.000284 F F F
0.250228 0.000487 0.250331 F F F
0.500210 0.001025 0.500163 F F F
0.750007 0.500208 0.749937 F F F
0.000102 0.500029 0.000469 F F F
0.250148 0.000615 0.750177 F F F
0.500120 0.000570 0.000293 F F F
0.250090 0.500613 0.750214 F F F
0.500345 0.500225 0.000727 F F F
0.985045 0.125575 0.231114 F F F
0.235298 0.125959 0.481164 F F F
0.985058 0.625954 0.230727 F F F
0.234327 0.625789 0.481761 F F F
0.984278 0.125662 0.730704 F F F
0.234146 0.125787 0.981122 F F F
0.484349 0.125565 0.231578 F F F
0.735711 0.126159 0.484364 F F F
0.984152 0.625846 0.730753 F F F
0.234477 0.625498 0.981653 F F F
0.483728 0.626274 0.229999 F F F
0.484709 0.125751 0.730880 F F F
0.734120 0.125454 0.981184 F F F
0.734170 0.625840 0.981180 F F F
0.230639 0.875645 0.234486 F F F
0.481084 0.876062 0.484523 F F F
0.233495 0.375840 0.235390 F F F
0.230657 0.875748 0.734645 F F F
0.480393 0.875793 0.984397 F F F
0.731709 0.875567 0.235126 F F F
0.981289 0.875815 0.484459 F F F
0.231254 0.375711 0.734765 F F F
0.479878 0.375647 0.985698 F F F
0.737990 0.375825 0.234412 F F F
0.981862 0.375843 0.483492 F F F
0.731048 0.875859 0.734962 F F F
0.981056 0.875589 0.984711 F F F
0.979415 0.375578 0.985016 F F F
0.771192 0.125042 0.265870 F F F
0.020138 0.125615 0.516131 F F F
0.772182 0.626340 0.266356 F F F
0.019629 0.626041 0.516214 F F F
0.769670 0.125725 0.766306 F F F
0.019949 0.125645 0.016451 F F F
0.269201 0.125393 0.267373 F F F
0.518707 0.126009 0.516578 F F F
0.769275 0.625879 0.765939 F F F
0.019819 0.625548 0.016339 F F F
0.269903 0.125635 0.766399 F F F
0.519231 0.125521 0.015729 F F F
0.269084 0.625901 0.767239 F F F
0.518606 0.625891 0.015209 F F F
0.016155 0.875735 0.269722 F F F
0.265962 0.875880 0.520090 F F F
0.015646 0.375834 0.270593 F F F
0.016065 0.875784 0.769935 F F F
0.266084 0.875703 0.019862 F F F
0.516295 0.875823 0.268899 F F F
0.766311 0.876151 0.519677 F F F
0.015839 0.375750 0.769727 F F F
0.267714 0.375542 0.021751 F F F
0.771621 0.376034 0.523340 F F F
0.516179 0.875828 0.770374 F F F
0.765935 0.875675 0.019829 F F F
0.515314 0.375825 0.770868 F F F
0.764286 0.375642 0.019954 F F F
0.874301 0.982143 0.224711 F F F
0.124185 0.982290 0.474676 F F F
0.874903 0.484142 0.224964 F F F
0.125644 0.482564 0.475897 F F F
0.874143 0.982179 0.724694 F F F
0.124115 0.982210 0.974678 F F F
0.374032 0.982253 0.224768 F F F
0.624156 0.982311 0.474739 F F F
0.874224 0.482156 0.724861 F F F
0.124221 0.481821 0.975212 F F F
0.375977 0.484871 0.226335 F F F
0.374057 0.982156 0.724679 F F F
0.624066 0.982185 0.974735 F F F
0.624002 0.482355 0.975055 F F F
0.974808 0.018055 0.374154 F F F
0.224518 0.018286 0.624189 F F F
0.976205 0.519652 0.374446 F F F
0.225415 0.518707 0.624936 F F F
0.974488 0.018357 0.874134 F F F
0.224504 0.018325 0.124145 F F F
0.474595 0.018189 0.374324 F F F
0.724461 0.018049 0.624418 F F F
0.974724 0.518231 0.874164 F F F
0.225648 0.518239 0.125218 F F F
0.474430 0.018287 0.874061 F F F
0.724634 0.018016 0.124013 F F F
0.474695 0.518183 0.874269 F F F
0.726289 0.518203 0.125120 F F F
0.025789 0.768269 0.126158 F F F
0.276071 0.768929 0.376447 F F F
0.025918 0.268660 0.126224 F F F
0.025943 0.768411 0.626327 F F F
0.275681 0.768315 0.876293 F F F
0.525656 0.768315 0.126071 F F F
0.775657 0.768127 0.376426 F F F
0.026805 0.268371 0.626612 F F F
0.275540 0.268341 0.876455 F F F
0.525706 0.267195 0.126224 F F F
0.783827 0.260850 0.377248 F F F
0.526066 0.769337 0.626468 F F F
0.775833 0.768304 0.876339 F F F
0.775535 0.268173 0.876378 F F F
0.126821 0.233635 0.276066 F F F
0.377192 0.232615 0.526572 F F F
0.126185 0.732306 0.275883 F F F
0.126158 0.232215 0.775922 F F F
0.376052 0.231868 0.025953 F F F
0.626968 0.224250 0.271526 F F F
0.877171 0.233001 0.527142 F F F
0.126117 0.732253 0.775896 F F F
0.376053 0.732283 0.025900 F F F
0.876354 0.733738 0.526820 F F F
0.626107 0.232141 0.776073 F F F
0.876198 0.232241 0.025624 F F F
0.626115 0.732501 0.776043 F F F
0.876195 0.732145 0.025787 F F F
0.874288 0.768403 0.224682 F F F
0.124214 0.768267 0.474687 F F F
0.874893 0.267517 0.224952 F F F
0.125319 0.268267 0.475494 F F F
0.874115 0.768345 0.724628 F F F
0.124051 0.768210 0.974641 F F F
0.373939 0.768393 0.224711 F F F
0.624120 0.768422 0.474704 F F F
0.874223 0.268358 0.724815 F F F
0.124147 0.268826 0.975146 F F F
0.375582 0.266620 0.226402 F F F
0.373998 0.768347 0.724671 F F F
0.624044 0.768274 0.974727 F F F
0.623920 0.268150 0.974977 F F F
0.975419 0.231876 0.374469 F F F
0.225020 0.232168 0.624451 F F F
0.974845 0.732514 0.374231 F F F
0.224524 0.732251 0.624291 F F F
0.974762 0.232187 0.874189 F F F
0.225207 0.232261 0.124773 F F F
0.475225 0.232144 0.375462 F F F
0.725131 0.232516 0.624384 F F F
0.974540 0.732112 0.874161 F F F
0.224546 0.732216 0.124272 F F F
0.474625 0.232293 0.874174 F F F
0.726436 0.232901 0.124980 F F F
0.474456 0.732347 0.874028 F F F
0.724757 0.732435 0.124044 F F F
0.126231 0.018311 0.275948 F F F
0.376135 0.018116 0.525885 F F F
0.127045 0.517888 0.275379 F F F
0.126186 0.018405 0.775911 F F F
0.376113 0.018746 0.026303 F F F
0.626270 0.018812 0.276654 F F F
0.876358 0.018043 0.526086 F F F
0.126093 0.518319 0.776056 F F F
0.376141 0.518462 0.025909 F F F
0.877369 0.518073 0.527613 F F F
0.626181 0.018297 0.775879 F F F
0.876229 0.018415 0.025926 F F F
0.626304 0.518566 0.776579 F F F
0.876262 0.518203 0.025634 F F F
0.025776 0.982222 0.126107 F F F
0.275845 0.981991 0.376256 F F F
0.025780 0.481986 0.126157 F F F
0.025779 0.982248 0.626288 F F F
0.275711 0.982265 0.876251 F F F
0.525760 0.982280 0.126083 F F F
0.775707 0.982344 0.376351 F F F
0.027125 0.482720 0.626562 F F F
0.275346 0.482078 0.876800 F F F
0.525892 0.485081 0.126440 F F F
0.783966 0.490390 0.377477 F F F
0.525693 0.982217 0.626354 F F F
0.775767 0.982265 0.876230 F F F
0.775633 0.482345 0.876450 F F F
0.390481 0.375623 0.353360 F F F
0.638122 0.375466 0.600487 T T T
0.606938 0.625358 0.389298 F F F
0.354053 0.625536 0.637598 F F F
0.397550 0.375926 0.616233 F F F
0.614963 0.625012 0.646382 F F F
0.364569 0.625431 0.398381 F F F
0.251458 0.250652 0.250705 F F F
0.503554 0.252433 0.499988 F F F
0.503626 0.251306 0.252588 F F F
0.252816 0.251164 0.500302 F F F
0.503886 0.500680 0.252750 F F F
0.252814 0.500349 0.500391 F F F
0.252352 0.500712 0.250995 F F F
0.503566 0.500014 0.500161 F F F
0.485267 0.625877 0.731001 F F F
0.736421 0.625917 0.485870 F F F
0.729872 0.375672 0.734515 F F F
0.478563 0.376381 0.487340 F F F
0.270003 0.626104 0.267697 F F F
0.519653 0.626435 0.517392 F F F
0.515617 0.376089 0.262384 F F F
0.267916 0.375867 0.522089 F F F
0.374081 0.483404 0.726053 F F F
0.625214 0.483413 0.475154 F F F
0.475879 0.520809 0.375631 F F F
0.725170 0.518025 0.624623 F F F
0.527204 0.269436 0.627070 F F F
0.277478 0.270178 0.376675 F F F
0.626222 0.732021 0.276194 F F F
0.376163 0.732788 0.526772 F F F
0.374001 0.268022 0.724982 F F F
0.625112 0.268564 0.474381 F F F
0.474805 0.732308 0.374467 F F F
0.723935 0.734240 0.624518 F F F
0.627163 0.528629 0.271389 F F F
0.377165 0.519920 0.527122 F F F
0.527523 0.482194 0.627092 F F F
0.278108 0.481619 0.376993 F F F
