Cs4 Pb4 Br12                            
   1.0000000000000000     
     8.8410184777726180    0.0000000000000000    0.0000000000000000
     0.0000000000000000   12.3519981738715945    0.0000000000000000
     0.0000000000000000    0.0000000000000000    7.5463023265519729
   Cs   Pb   Br
     4     4    12
Direct
  0.0778643172515885  0.2500000000000000  0.4657510101125055
  0.4221356827484115  0.7500000000000000  0.9657510101125055
  0.5778643172515885  0.2500000000000000  0.0342489898874945
  0.9221356827484115  0.7500000000000000  0.5342489898874945
  0.0000000000000000  0.0000000000000000  0.0000000000000000
  0.5000000000000000  0.0000000000000000  0.5000000000000000
  0.5000000000000000  0.5000000000000000  0.5000000000000000
  0.0000000000000000  0.5000000000000000  0.0000000000000000
  0.5094367104326025  0.7500000000000000  0.4547242196847563
  0.9905632895673975  0.2500000000000000  0.9547242196847563
  0.0094367104326025  0.7500000000000000  0.0452757803152437
  0.4905632895673975  0.2500000000000000  0.5452757803152437
  0.3055456295068382  0.4682273794607354  0.1768737570717107
  0.1944543704931618  0.5317726205392646  0.6768737570717107
  0.8055456295068382  0.0317726205392646  0.3231262429282893
  0.6944543704931618  0.9682273794607354  0.8231262429282893
  0.3055456295068382  0.0317726205392646  0.1768737570717107
  0.1944543704931618  0.9682273794607354  0.6768737570717107
  0.6944543704931618  0.5317726205392646  0.8231262429282893
  0.8055456295068382  0.4682273794607354  0.3231262429282893

  0.00000000E+00  0.00000000E+00  0.00000000E+00
  0.00000000E+00  0.00000000E+00  0.00000000E+00
  0.00000000E+00  0.00000000E+00  0.00000000E+00
  0.00000000E+00  0.00000000E+00  0.00000000E+00
  0.00000000E+00  0.00000000E+00  0.00000000E+00
  0.00000000E+00  0.00000000E+00  0.00000000E+00
  0.00000000E+00  0.00000000E+00  0.00000000E+00
  0.00000000E+00  0.00000000E+00  0.00000000E+00
  0.00000000E+00  0.00000000E+00  0.00000000E+00
  0.00000000E+00  0.00000000E+00  0.00000000E+00
  0.00000000E+00  0.00000000E+00  0.00000000E+00
  0.00000000E+00  0.00000000E+00  0.00000000E+00
  0.00000000E+00  0.00000000E+00  0.00000000E+00
  0.00000000E+00  0.00000000E+00  0.00000000E+00
  0.00000000E+00  0.00000000E+00  0.00000000E+00
  0.00000000E+00  0.00000000E+00  0.00000000E+00
  0.00000000E+00  0.00000000E+00  0.00000000E+00
  0.00000000E+00  0.00000000E+00  0.00000000E+00
  0.00000000E+00  0.00000000E+00  0.00000000E+00
  0.00000000E+00  0.00000000E+00  0.00000000E+00
