Cs4 Pb4 Br12                            
   1.0000000000000000     
     8.2847974878678379    0.0000000000000000    0.0000000000000000
     0.0000000000000000   11.6980795594975131    0.0000000000000000
     0.0000000000000000    0.0000000000000000    8.3203199703215791
   Cs   Pb   Br
     4     4    12
Direct
  0.0523892861769397  0.2500000000000000  0.4882390310061879
  0.4476107138230603  0.7500000000000000  0.9882390310061879
  0.5523892861769397  0.2500000000000000  0.0117609689938121
  0.9476107138230603  0.7500000000000000  0.5117609689938121
  0.0000000000000000  0.0000000000000000  0.0000000000000000
  0.5000000000000000  0.0000000000000000  0.5000000000000000
  0.5000000000000000  0.5000000000000000  0.5000000000000000
  0.0000000000000000  0.5000000000000000  0.0000000000000000
  0.5068703563585615  0.7500000000000000  0.4279719492317042
  0.9931296436414385  0.2500000000000000  0.9279719492317042
  0.0068703563585615  0.7500000000000000  0.0720280507682958
  0.4931296436414385  0.2500000000000000  0.5720280507682958
  0.2923023434379246  0.4636572178916865  0.2080131495653248
  0.2076976565620754  0.5363427821083135  0.7080131495653248
  0.7923023434379246  0.0363427821083135  0.2919868504346752
  0.7076976565620754  0.9636572178916865  0.7919868504346752
  0.2923023434379246  0.0363427821083135  0.2080131495653248
  0.2076976565620754  0.9636572178916865  0.7080131495653248
  0.7076976565620754  0.5363427821083135  0.7919868504346752
  0.7923023434379246  0.4636572178916865  0.2919868504346752

  0.00000000E+00  0.00000000E+00  0.00000000E+00
  0.00000000E+00  0.00000000E+00  0.00000000E+00
  0.00000000E+00  0.00000000E+00  0.00000000E+00
  0.00000000E+00  0.00000000E+00  0.00000000E+00
  0.00000000E+00  0.00000000E+00  0.00000000E+00
  0.00000000E+00  0.00000000E+00  0.00000000E+00
  0.00000000E+00  0.00000000E+00  0.00000000E+00
  0.00000000E+00  0.00000000E+00  0.00000000E+00
  0.00000000E+00  0.00000000E+00  0.00000000E+00
  0.00000000E+00  0.00000000E+00  0.00000000E+00
  0.00000000E+00  0.00000000E+00  0.00000000E+00
  0.00000000E+00  0.00000000E+00  0.00000000E+00
  0.00000000E+00  0.00000000E+00  0.00000000E+00
  0.00000000E+00  0.00000000E+00  0.00000000E+00
  0.00000000E+00  0.00000000E+00  0.00000000E+00
  0.00000000E+00  0.00000000E+00  0.00000000E+00
  0.00000000E+00  0.00000000E+00  0.00000000E+00
  0.00000000E+00  0.00000000E+00  0.00000000E+00
  0.00000000E+00  0.00000000E+00  0.00000000E+00
  0.00000000E+00  0.00000000E+00  0.00000000E+00
