Cs8 Pb8 Br23                            
   1.0000000000000000     
     8.4564889999999995    0.0000000000000000    8.0403009999999995
     0.0000000000000000   11.7298469999999995    0.0000000000000000
    -8.4564889999999995    0.0000000000000000    8.0403009999999995
   Cs   Pb   Br
     8     8    23
Direct
  0.2508869999999987  0.2369839999999996  0.1940489999999997
  0.7767189999999999  0.2451050000000023  0.7177069999999972
  0.7671729999999997  0.7632320000000021  0.2587740000000025
  0.1943910000000031  0.7487229999999983  0.7724919999999997
  0.2970789999999965  0.2505600000000001  0.7312399999999997
  0.7873429999999999  0.2459899999999990  0.2274170000000026
  0.7362859999999998  0.7520850000000010  0.8049439999999990
  0.2151420000000002  0.7528530000000018  0.2893249999999981
  0.9985199999999992  0.0006040000000027  0.9979950000000031
  0.4995210000000014  0.0026340000000005  0.4873750000000001
  0.4944119999999970  0.0013119999999986  0.9941490000000002
  0.0049879999999973  0.0002560000000003  0.5054310000000015
  0.5013059999999996  0.5054230000000004  0.0016359999999978
  0.0053989999999970  0.4942259999999976  0.5053520000000020
  0.9998739999999984  0.4982809999999986  0.0007510000000011
  0.5060119999999984  0.4880649999999989  0.5074389999999980
  0.4664369999999991  0.7518060000000020  0.9528460000000010
  0.9791850000000011  0.7471680000000021  0.4894490000000005
  0.9686390000000031  0.2497449999999972  0.9773589999999999
  0.4551609999999968  0.2422710000000023  0.4537430000000029
  0.0180440000000033  0.7497479999999968  0.0316509999999965
  0.5192320000000024  0.2551259999999971  0.0365499999999983
  0.0377480000000006  0.2473689999999991  0.5454509999999999
  0.2482400000000027  0.4702359999999999  0.9547439999999980
  0.7513059999999996  0.4542709999999985  0.4578020000000009
  0.9450390000000013  0.5287039999999976  0.7524689999999978
  0.5470839999999981  0.0333800000000011  0.7407159999999990
  0.0370109999999997  0.0226669999999984  0.2549629999999965
  0.7481659999999977  0.9779959999999974  0.0402529999999999
  0.2556319999999985  0.9586789999999965  0.5483049999999992
  0.2437400000000025  0.0298400000000001  0.9391880000000015
  0.7473230000000015  0.0298579999999973  0.4492729999999980
  0.4362580000000023  0.9726229999999987  0.2381579999999985
  0.9443180000000027  0.9692459999999983  0.7503129999999985
  0.7502360000000010  0.5291309999999996  0.0562729999999974
  0.2600260000000034  0.5334100000000035  0.5533259999999984
  0.5534480000000030  0.4747380000000021  0.7653070000000000
  0.0508280000000028  0.4701889999999977  0.2572249999999983
  0.5027320000000017  0.6632249999999971  0.3575269999999975

  0.00000000E+00  0.00000000E+00  0.00000000E+00
  0.00000000E+00  0.00000000E+00  0.00000000E+00
  0.00000000E+00  0.00000000E+00  0.00000000E+00
  0.00000000E+00  0.00000000E+00  0.00000000E+00
  0.00000000E+00  0.00000000E+00  0.00000000E+00
  0.00000000E+00  0.00000000E+00  0.00000000E+00
  0.00000000E+00  0.00000000E+00  0.00000000E+00
  0.00000000E+00  0.00000000E+00  0.00000000E+00
  0.00000000E+00  0.00000000E+00  0.00000000E+00
  0.00000000E+00  0.00000000E+00  0.00000000E+00
  0.00000000E+00  0.00000000E+00  0.00000000E+00
  0.00000000E+00  0.00000000E+00  0.00000000E+00
  0.00000000E+00  0.00000000E+00  0.00000000E+00
  0.00000000E+00  0.00000000E+00  0.00000000E+00
  0.00000000E+00  0.00000000E+00  0.00000000E+00
  0.00000000E+00  0.00000000E+00  0.00000000E+00
  0.00000000E+00  0.00000000E+00  0.00000000E+00
  0.00000000E+00  0.00000000E+00  0.00000000E+00
  0.00000000E+00  0.00000000E+00  0.00000000E+00
  0.00000000E+00  0.00000000E+00  0.00000000E+00
  0.00000000E+00  0.00000000E+00  0.00000000E+00
  0.00000000E+00  0.00000000E+00  0.00000000E+00
  0.00000000E+00  0.00000000E+00  0.00000000E+00
  0.00000000E+00  0.00000000E+00  0.00000000E+00
  0.00000000E+00  0.00000000E+00  0.00000000E+00
  0.00000000E+00  0.00000000E+00  0.00000000E+00
  0.00000000E+00  0.00000000E+00  0.00000000E+00
  0.00000000E+00  0.00000000E+00  0.00000000E+00
  0.00000000E+00  0.00000000E+00  0.00000000E+00
  0.00000000E+00  0.00000000E+00  0.00000000E+00
  0.00000000E+00  0.00000000E+00  0.00000000E+00
  0.00000000E+00  0.00000000E+00  0.00000000E+00
  0.00000000E+00  0.00000000E+00  0.00000000E+00
  0.00000000E+00  0.00000000E+00  0.00000000E+00
  0.00000000E+00  0.00000000E+00  0.00000000E+00
  0.00000000E+00  0.00000000E+00  0.00000000E+00
  0.00000000E+00  0.00000000E+00  0.00000000E+00
  0.00000000E+00  0.00000000E+00  0.00000000E+00
  0.00000000E+00  0.00000000E+00  0.00000000E+00
