Cs64 Pb64 Br191
1.0
16.840035 0.000000 16.155961
0.000000 23.527616 0.000000
-16.840035 0.000000 16.155961
Cs Pb Br Cs Pb Br
56 56 168 8 8 23
direct
0.885580 0.875449 0.353552 Cs
0.136404 0.875182 0.603456 Cs
0.888804 0.374767 0.353198 Cs
0.136047 0.374053 0.607248 Cs
0.887024 0.875182 0.853914 Cs
0.136068 0.875141 0.103243 Cs
0.388391 0.875275 0.358232 Cs
0.634175 0.875574 0.600385 Cs
0.885134 0.375057 0.853136 Cs
0.137054 0.374968 0.104541 Cs
0.386277 0.875194 0.853289 Cs
0.636399 0.875136 0.104175 Cs
0.386793 0.374870 0.855766 Cs
0.635577 0.374946 0.100110 Cs
0.103609 0.124658 0.386401 Cs
0.354158 0.123729 0.637102 Cs
0.104076 0.626400 0.385765 Cs
0.103890 0.124803 0.886195 Cs
0.353978 0.124435 0.136018 Cs
0.603207 0.120655 0.381774 Cs
0.853939 0.124959 0.635472 Cs
0.103947 0.625316 0.886273 Cs
0.353971 0.625725 0.135959 Cs
0.854106 0.628170 0.637487 Cs
0.604121 0.125748 0.885228 Cs
0.853800 0.124720 0.136330 Cs
0.604255 0.624470 0.885374 Cs
0.853929 0.625471 0.136466 Cs
0.896917 0.875136 0.114053 Cs
0.146907 0.875230 0.363957 Cs
0.894272 0.374980 0.113413 Cs
0.147671 0.373674 0.364505 Cs
0.895001 0.875378 0.612810 Cs
0.146980 0.875149 0.864380 Cs
0.396063 0.875152 0.113348 Cs
0.647458 0.875476 0.364624 Cs
0.904778 0.374594 0.618602 Cs
0.146300 0.374969 0.861848 Cs
0.397858 0.374906 0.113838 Cs
0.397832 0.875420 0.613639 Cs
0.646252 0.875169 0.863749 Cs
0.650086 0.375026 0.866793 Cs
0.113884 0.124637 0.146074 Cs
0.368373 0.128588 0.396721 Cs
0.113805 0.625490 0.146071 Cs
0.114598 0.124946 0.645975 Cs
0.364136 0.125015 0.896596 Cs
0.614114 0.124595 0.145885 Cs
0.862676 0.125740 0.397172 Cs
0.114715 0.625398 0.646489 Cs
0.364167 0.625160 0.896701 Cs
0.614067 0.625717 0.145857 Cs
0.863992 0.625642 0.395948 Cs
0.611667 0.124685 0.642884 Cs
0.864673 0.124250 0.898046 Cs
0.864784 0.625868 0.898964 Cs
0.750629 0.750419 0.249685 Pb
0.000191 0.750675 0.499981 Pb
0.750505 0.250481 0.249778 Pb
0.000816 0.250170 0.499518 Pb
0.750009 0.751300 0.750139 Pb
0.000165 0.750246 0.000045 Pb
0.250045 0.750652 0.250039 Pb
0.500203 0.748947 0.500130 Pb
0.753150 0.247343 0.751125 Pb
0.000180 0.250427 0.000067 Pb
0.249945 0.750626 0.750191 Pb
0.500040 0.750411 0.999793 Pb
0.250015 0.248906 0.750634 Pb
0.500120 0.249428 0.000061 Pb
0.000259 0.750437 0.250038 Pb
0.250191 0.750345 0.499781 Pb
0.000347 0.250013 0.249735 Pb
0.000270 0.750683 0.750144 Pb
0.250071 0.750206 0.000057 Pb
0.499460 0.751554 0.249375 Pb
0.749996 0.749762 0.499955 Pb
0.000346 0.248743 0.750453 Pb
0.250033 0.250342 0.000063 Pb
0.747270 0.257187 0.502492 Pb
0.500266 0.750325 0.750351 Pb
0.750069 0.750591 0.000058 Pb
0.500453 0.250091 0.750743 Pb
0.750319 0.249033 0.000201 Pb
0.000277 0.000127 0.250145 Pb
0.250198 0.000421 0.499711 Pb
0.000475 0.500062 0.249804 Pb
0.000175 0.999592 0.750015 Pb
0.250041 0.000342 0.000051 Pb
0.499527 0.999082 0.249569 Pb
0.749536 0.003028 0.499836 Pb
0.000312 0.501206 0.750505 Pb
0.249992 0.499968 0.000084 Pb
0.755616 0.497699 0.503408 Pb
0.500265 0.000442 0.750177 Pb
0.750059 0.999599 0.000023 Pb
0.500355 0.500075 0.750694 Pb
0.750382 0.500984 0.000188 Pb
0.750617 0.000255 0.249813 Pb
0.000032 0.000025 0.499914 Pb
0.750614 0.499910 0.249675 Pb
0.003529 0.500205 0.499654 Pb
0.749999 0.999240 0.749972 Pb
0.000156 0.000238 0.000086 Pb
0.250196 0.999880 0.250282 Pb
0.500644 0.005760 0.500320 Pb
0.753034 0.502991 0.750896 Pb
0.000240 0.499765 0.000123 Pb
0.250016 0.999721 0.750088 Pb
0.500062 0.999911 0.999828 Pb
0.250065 0.500999 0.750768 Pb
0.500064 0.500661 0.999954 Pb
0.984677 0.125365 0.230679 Br
0.235913 0.125297 0.478814 Br
0.984707 0.624990 0.231201 Br
0.236320 0.624740 0.478751 Br
0.985147 0.124579 0.729946 Br
0.234563 0.125521 0.980622 Br
0.485248 0.124571 0.232696 Br
0.731291 0.130111 0.481206 Br
0.985433 0.625612 0.730173 Br
0.234655 0.625016 0.980756 Br
0.485264 0.625823 0.232901 Br
0.485858 0.125670 0.730645 Br
0.734000 0.124693 0.981197 Br
0.733839 0.625453 0.981606 Br
0.229927 0.875211 0.233816 Br
0.487458 0.873628 0.487912 Br
0.234240 0.375189 0.235425 Br
0.230404 0.875026 0.734126 Br
0.480480 0.875108 0.983764 Br
0.732371 0.875245 0.234898 Br
0.980374 0.875126 0.483949 Br
0.236327 0.375176 0.733189 Br
0.482635 0.375287 0.985298 Br
0.733454 0.375402 0.227300 Br
0.982575 0.375930 0.484783 Br
0.728397 0.875105 0.732195 Br
0.981200 0.875207 0.984599 Br
0.979283 0.375280 0.984098 Br
0.768879 0.125987 0.266472 Br
0.017518 0.125643 0.516132 Br
0.768703 0.624565 0.266600 Br
0.019244 0.624840 0.515768 Br
0.771731 0.123795 0.766591 Br
0.019379 0.125475 0.015452 Br
0.271132 0.124933 0.266838 Br
0.519404 0.130038 0.509846 Br
0.771449 0.626536 0.767337 Br
0.019213 0.624959 0.015379 Br
0.269320 0.124702 0.766442 Br
0.520117 0.124839 0.015167 Br
0.269033 0.625453 0.766830 Br
0.520027 0.625404 0.015069 Br
0.015807 0.875203 0.270181 Br
0.266678 0.875000 0.519203 Br
0.017774 0.375217 0.269581 Br
0.016894 0.875054 0.770158 Br
0.265619 0.875244 0.018979 Br
0.516147 0.875156 0.271334 Br
0.763779 0.876172 0.515961 Br
0.014164 0.375180 0.766197 Br
0.266878 0.375351 0.020431 Br
0.768149 0.377175 0.539089 Br
0.516062 0.875230 0.767938 Br
0.766209 0.875046 0.020480 Br
0.517957 0.375491 0.771361 Br
0.765349 0.375184 0.014997 Br
0.874313 0.982191 0.224438 Br
0.124061 0.982367 0.474550 Br
0.874151 0.482186 0.225077 Br
0.124544 0.482986 0.474824 Br
0.873927 0.981571 0.724379 Br
0.124013 0.982271 0.974578 Br
0.374033 0.981502 0.224514 Br
0.624234 0.984768 0.473348 Br
0.875182 0.486228 0.721115 Br
0.123981 0.481433 0.974237 Br
0.374207 0.485465 0.221424 Br
0.374137 0.982057 0.724451 Br
0.624039 0.981907 0.974571 Br
0.624219 0.482888 0.974405 Br
0.974171 0.018528 0.374029 Br
0.224837 0.018020 0.623760 Br
0.975040 0.518050 0.374699 Br
0.227324 0.518904 0.623593 Br
0.974841 0.017867 0.873873 Br
0.224814 0.018075 0.123966 Br
0.474576 0.017445 0.373835 Br
0.724418 0.018475 0.623712 Br
0.974374 0.517909 0.873680 Br
0.224174 0.518199 0.124122 Br
0.474714 0.018093 0.873851 Br
0.724842 0.017987 0.123844 Br
0.475139 0.518230 0.873693 Br
0.725111 0.518341 0.125452 Br
0.025663 0.767968 0.126206 Br
0.276078 0.768262 0.376155 Br
0.025610 0.268247 0.126188 Br
0.025504 0.768192 0.625969 Br
0.275729 0.768087 0.876010 Br
0.525331 0.768259 0.125993 Br
0.775555 0.767254 0.376168 Br
0.026411 0.266003 0.625955 Br
0.275400 0.268314 0.876373 Br
0.527443 0.266404 0.125347 Br
0.771565 0.274953 0.377213 Br
0.526379 0.765682 0.625964 Br
0.775619 0.768746 0.875982 Br
0.777856 0.263602 0.876732 Br
0.126357 0.231932 0.275788 Br
0.374919 0.229721 0.526326 Br
0.126342 0.732202 0.275379 Br
0.126416 0.232266 0.775761 Br
0.376241 0.232107 0.025556 Br
0.626379 0.232275 0.275608 Br
0.866733 0.236246 0.523940 Br
0.126224 0.732102 0.775389 Br
0.376262 0.732151 0.025306 Br
0.876182 0.732038 0.525096 Br
0.627610 0.235707 0.773379 Br
0.876255 0.231988 0.026071 Br
0.626270 0.731815 0.775445 Br
0.876176 0.732205 0.025672 Br
0.874302 0.767927 0.224455 Br
0.124152 0.767920 0.474479 Br
0.874195 0.267989 0.224886 Br
0.120699 0.266156 0.476651 Br
0.873908 0.768889 0.724314 Br
0.124008 0.767860 0.974542 Br
0.373996 0.768542 0.224470 Br
0.624349 0.765850 0.473294 Br
0.875457 0.264216 0.721853 Br
0.123950 0.268844 0.974210 Br
0.374044 0.264696 0.221444 Br
0.374136 0.768198 0.724343 Br
0.624040 0.768172 0.974537 Br
0.624235 0.267246 0.974223 Br
0.974427 0.232064 0.374101 Br
0.227061 0.231805 0.624046 Br
0.974632 0.732042 0.374042 Br
0.224878 0.732056 0.623761 Br
0.974392 0.232155 0.873819 Br
0.224159 0.231870 0.124091 Br
0.480150 0.239274 0.373950 Br
0.722225 0.232207 0.624339 Br
0.974801 0.732213 0.873855 Br
0.224791 0.732058 0.123963 Br
0.474906 0.231823 0.873978 Br
0.724906 0.231894 0.124711 Br
0.474733 0.732052 0.873753 Br
0.724867 0.732142 0.123940 Br
0.126348 0.018159 0.275630 Br
0.376558 0.018039 0.525134 Br
0.126415 0.518067 0.275899 Br
0.126210 0.018002 0.775346 Br
0.376263 0.017966 0.025317 Br
0.626348 0.015310 0.273120 Br
0.876126 0.018324 0.525280 Br
0.126375 0.517771 0.775770 Br
0.376313 0.518034 0.025477 Br
0.872598 0.518129 0.525848 Br
0.626292 0.018344 0.775382 Br
0.876187 0.017909 0.025602 Br
0.627372 0.515104 0.773048 Br
0.876238 0.518135 0.026119 Br
0.025624 0.982152 0.126241 Br
0.275936 0.981788 0.376152 Br
0.025585 0.481931 0.126285 Br
0.025475 0.981873 0.625928 Br
0.275650 0.982050 0.876025 Br
0.525310 0.981840 0.126060 Br
0.775842 0.984509 0.376157 Br
0.027436 0.483771 0.625719 Br
0.275516 0.481829 0.876133 Br
0.527420 0.484261 0.125964 Br
0.772934 0.476392 0.378445 Br
0.526046 0.985241 0.625934 Br
0.775546 0.981476 0.875915 Br
0.777427 0.486880 0.876703 Br
0.381504 0.374829 0.339271 Cs
0.638294 0.373504 0.636617 Cs
0.603405 0.632069 0.381360 Cs
0.353731 0.628446 0.638713 Cs
0.383525 0.373433 0.623847 Cs
0.645449 0.374542 0.350657 Cs
0.611979 0.627118 0.644850 Cs
0.367119 0.624479 0.394552 Cs
0.249883 0.248741 0.249746 Pb
0.500091 0.267177 0.499561 Pb
0.500110 0.249326 0.248958 Pb
0.253400 0.249227 0.500174 Pb
0.500085 0.501016 0.248507 Pb
0.249762 0.500149 0.499529 Pb
0.249753 0.501130 0.249696 Pb
0.491720 0.493148 0.501262 Pb
0.485424 0.624888 0.730827 Br
0.733095 0.622507 0.480427 Br
0.747587 0.375332 0.747806 Br
0.440787 0.376260 0.484137 Br
0.270304 0.625425 0.266216 Br
0.520952 0.617659 0.510484 Br
0.514525 0.375425 0.260946 Br
0.261041 0.375728 0.520169 Br
0.374455 0.485661 0.727975 Br
0.478459 0.512950 0.374704 Br
0.721371 0.518824 0.623677 Br
0.520006 0.272643 0.626628 Br
0.276318 0.268134 0.376023 Br
0.626302 0.735498 0.272492 Br
0.376693 0.732082 0.525042 Br
0.374504 0.264101 0.729107 Br
0.474923 0.733152 0.373867 Br
0.724611 0.732027 0.623702 Br
0.626416 0.518049 0.277223 Br
0.379173 0.523661 0.525997 Br
0.522045 0.477450 0.625177 Br
0.276214 0.482025 0.376425 Br
0.608454 0.328699 0.489511 Br
