Cs8 Pb8 Br23                            
   1.0000000000000000     
     8.4564889999999995    0.0000000000000000    8.0403009999999995
     0.0000000000000000   11.7298469999999995    0.0000000000000000
    -8.4564889999999995    0.0000000000000000    8.0403009999999995
   Cs   Pb   Br
     8     8    23
Direct
  0.2722589999999983  0.2458930000000024  0.2054869999999980
  0.7744709999999984  0.2387400000000000  0.7192399999999992
  0.7117390000000015  0.7614620000000016  0.2637140000000002
  0.2044890000000024  0.7542249999999981  0.7774550000000033
  0.2784600000000026  0.2389439999999965  0.7287970000000001
  0.7964729999999989  0.2456650000000025  0.2244770000000003
  0.7366349999999997  0.7589309999999969  0.7964419999999990
  0.2221329999999995  0.7567710000000005  0.2874920000000003
  0.0010630000000020  0.0002739999999974  0.0011089999999996
  0.5001359999999977  0.9981989999999996  0.4999719999999996
  0.4994879999999995  0.9997830000000008  0.9996659999999977
  0.9994530000000026  0.9986699999999971  0.4991509999999977
  0.4982960000000034  0.5015989999999988  0.0078340000000026
  0.0055690000000013  0.5007870000000025  0.5002160000000018
  0.0002029999999991  0.4997150000000019  0.9995919999999998
  0.4918359999999993  0.5026330000000030  0.4965230000000034
  0.4742639999999980  0.7481459999999984  0.9585870000000014
  0.9651780000000016  0.7475409999999982  0.4634500000000017
  0.9714579999999984  0.2503949999999975  0.9709259999999986
  0.4630629999999982  0.2525219999999990  0.4763900000000021
  0.0284169999999975  0.7496870000000015  0.0303520000000006
  0.5495450000000019  0.7460009999999997  0.5301940000000016
  0.5309030000000021  0.2520390000000035  0.0322880000000012
  0.0216819999999984  0.2508899999999983  0.5331130000000002
  0.2500190000000018  0.4671000000000021  0.9457519999999988
  0.4495220000000018  0.5387180000000029  0.2505510000000015
  0.9432880000000026  0.5298749999999970  0.7457479999999990
  0.5472389999999976  0.0324749999999980  0.7520189999999971
  0.0507759999999990  0.0347849999999994  0.2522439999999975
  0.7527600000000021  0.9745100000000022  0.0467009999999988
  0.2525019999999998  0.9601279999999974  0.5482969999999980
  0.2483310000000003  0.0310690000000022  0.9524189999999990
  0.7474289999999968  0.0362340000000003  0.4496049999999983
  0.4506969999999981  0.9643730000000019  0.2476190000000003
  0.9543129999999991  0.9702679999999972  0.7471249999999969
  0.7516510000000025  0.5315799999999982  0.0510949999999966
  0.2521580000000014  0.5368759999999995  0.5562410000000000
  0.0536379999999994  0.4655770000000032  0.2535010000000000
  0.6498840000000001  0.4644180000000020  0.5972020000000029

  0.00000000E+00  0.00000000E+00  0.00000000E+00
  0.00000000E+00  0.00000000E+00  0.00000000E+00
  0.00000000E+00  0.00000000E+00  0.00000000E+00
  0.00000000E+00  0.00000000E+00  0.00000000E+00
  0.00000000E+00  0.00000000E+00  0.00000000E+00
  0.00000000E+00  0.00000000E+00  0.00000000E+00
  0.00000000E+00  0.00000000E+00  0.00000000E+00
  0.00000000E+00  0.00000000E+00  0.00000000E+00
  0.00000000E+00  0.00000000E+00  0.00000000E+00
  0.00000000E+00  0.00000000E+00  0.00000000E+00
  0.00000000E+00  0.00000000E+00  0.00000000E+00
  0.00000000E+00  0.00000000E+00  0.00000000E+00
  0.00000000E+00  0.00000000E+00  0.00000000E+00
  0.00000000E+00  0.00000000E+00  0.00000000E+00
  0.00000000E+00  0.00000000E+00  0.00000000E+00
  0.00000000E+00  0.00000000E+00  0.00000000E+00
  0.00000000E+00  0.00000000E+00  0.00000000E+00
  0.00000000E+00  0.00000000E+00  0.00000000E+00
  0.00000000E+00  0.00000000E+00  0.00000000E+00
  0.00000000E+00  0.00000000E+00  0.00000000E+00
  0.00000000E+00  0.00000000E+00  0.00000000E+00
  0.00000000E+00  0.00000000E+00  0.00000000E+00
  0.00000000E+00  0.00000000E+00  0.00000000E+00
  0.00000000E+00  0.00000000E+00  0.00000000E+00
  0.00000000E+00  0.00000000E+00  0.00000000E+00
  0.00000000E+00  0.00000000E+00  0.00000000E+00
  0.00000000E+00  0.00000000E+00  0.00000000E+00
  0.00000000E+00  0.00000000E+00  0.00000000E+00
  0.00000000E+00  0.00000000E+00  0.00000000E+00
  0.00000000E+00  0.00000000E+00  0.00000000E+00
  0.00000000E+00  0.00000000E+00  0.00000000E+00
  0.00000000E+00  0.00000000E+00  0.00000000E+00
  0.00000000E+00  0.00000000E+00  0.00000000E+00
  0.00000000E+00  0.00000000E+00  0.00000000E+00
  0.00000000E+00  0.00000000E+00  0.00000000E+00
  0.00000000E+00  0.00000000E+00  0.00000000E+00
  0.00000000E+00  0.00000000E+00  0.00000000E+00
  0.00000000E+00  0.00000000E+00  0.00000000E+00
  0.00000000E+00  0.00000000E+00  0.00000000E+00
