Cs8 Pb8 Br23
1.0
8.456489 0.000000 8.040301
0.000000 11.729847 0.000000
-8.456489 0.000000 8.040301
Cs Pb Br
8 8 23
direct
0.272259 0.245893 0.205487 Cs
0.774471 0.238740 0.719240 Cs
0.711739 0.761462 0.263714 Cs
0.204489 0.754225 0.777455 Cs
0.278460 0.238944 0.728797 Cs
0.796473 0.245665 0.224477 Cs
0.736635 0.758931 0.796442 Cs
0.222133 0.756771 0.287492 Cs
0.001063 0.000274 0.001109 Pb
0.500136 -0.001801 0.499972 Pb
0.499488 -0.000217 -0.000334 Pb
-0.000547 -0.001330 0.499151 Pb
0.498296 0.501599 0.007834 Pb
0.005569 0.500787 0.500216 Pb
0.000203 0.499715 -0.000408 Pb
0.491836 0.502633 0.496523 Pb
0.474264 0.748146 0.958587 Br
0.965178 0.747541 0.463450 Br
0.971458 0.250395 0.970926 Br
0.463063 0.252522 0.476390 Br
0.028417 0.749687 0.030352 Br
0.549545 0.746001 0.530194 Br
0.530903 0.252039 0.032288 Br
0.021682 0.250890 0.533113 Br
0.250019 0.467100 0.945752 Br
0.449522 0.538718 0.250551 Br
0.943288 0.529875 0.745748 Br
0.547239 0.032475 0.752019 Br
0.050776 0.034785 0.252244 Br
0.752760 0.974510 0.046701 Br
0.252502 0.960128 0.548297 Br
0.248331 0.031069 0.952419 Br
0.747429 0.036234 0.449605 Br
0.450697 0.964373 0.247619 Br
0.954313 0.970268 0.747125 Br
0.751651 0.531580 0.051095 Br
0.252158 0.536876 0.556241 Br
0.053638 0.465577 0.253501 Br
0.649884 0.464418 0.597202 Br
