Cs64 Pb64 Br191
1.0
16.840035 0.000000 16.155961
0.000000 23.527616 0.000000
-16.840035 0.000000 16.155961
Cs Pb Br Cs Pb Br
56 56 168 8 8 23
direct
0.885847 0.875112 0.353433 Cs
0.135908 0.875115 0.603644 Cs
0.886356 0.374748 0.352493 Cs
0.135616 0.374796 0.604256 Cs
0.886318 0.875091 0.853658 Cs
0.135860 0.875029 0.103280 Cs
0.385723 0.875393 0.353803 Cs
0.635967 0.875428 0.603391 Cs
0.885682 0.375005 0.853023 Cs
0.136267 0.374764 0.103821 Cs
0.385865 0.875141 0.853512 Cs
0.636031 0.874897 0.103918 Cs
0.386186 0.374182 0.853683 Cs
0.635874 0.375235 0.103268 Cs
0.103622 0.124935 0.385964 Cs
0.353652 0.124677 0.636079 Cs
0.099300 0.625423 0.385488 Cs
0.103452 0.124854 0.885999 Cs
0.353455 0.124695 0.135616 Cs
0.603198 0.124772 0.385922 Cs
0.854067 0.124566 0.636222 Cs
0.103522 0.625078 0.885809 Cs
0.356556 0.625059 0.137162 Cs
0.853316 0.625136 0.635719 Cs
0.603607 0.125029 0.885834 Cs
0.853786 0.124884 0.135829 Cs
0.604525 0.625774 0.886558 Cs
0.854826 0.625358 0.135871 Cs
0.896463 0.875379 0.113679 Cs
0.146288 0.875131 0.363832 Cs
0.896356 0.374478 0.112665 Cs
0.146785 0.374698 0.364090 Cs
0.896771 0.875131 0.614152 Cs
0.146227 0.875076 0.863937 Cs
0.396134 0.875258 0.113718 Cs
0.646685 0.876713 0.362516 Cs
0.895048 0.374301 0.613952 Cs
0.146369 0.374832 0.863568 Cs
0.392392 0.375717 0.115196 Cs
0.396360 0.875045 0.614136 Cs
0.646386 0.875075 0.864163 Cs
0.646921 0.374991 0.864563 Cs
0.113672 0.124695 0.146058 Cs
0.363502 0.124257 0.396705 Cs
0.114492 0.624511 0.146150 Cs
0.113974 0.124857 0.646200 Cs
0.363931 0.124894 0.896373 Cs
0.614135 0.124829 0.146139 Cs
0.864164 0.124862 0.396391 Cs
0.113383 0.625119 0.646014 Cs
0.363590 0.625346 0.896537 Cs
0.613830 0.628233 0.144614 Cs
0.863819 0.625591 0.396742 Cs
0.613558 0.124458 0.646017 Cs
0.864307 0.124771 0.896991 Cs
0.863943 0.625185 0.896173 Cs
0.751812 0.750963 0.249370 Pb
0.999846 0.750326 0.500081 Pb
0.750353 0.250027 0.249534 Pb
0.999913 0.249621 0.499967 Pb
0.750142 0.750570 0.750051 Pb
0.000071 0.749942 0.999955 Pb
0.249573 0.750157 0.249621 Pb
0.500054 0.750203 0.500137 Pb
0.750866 0.248360 0.750787 Pb
0.000035 0.249941 0.999882 Pb
0.249764 0.750308 0.750193 Pb
0.499654 0.750562 0.999599 Pb
0.249688 0.249416 0.750315 Pb
0.499889 0.249861 0.000294 Pb
0.000375 0.750258 0.249917 Pb
0.249600 0.750199 0.500087 Pb
0.999941 0.249766 0.249850 Pb
0.999970 0.750023 0.750023 Pb
0.249865 0.750049 0.999980 Pb
0.499354 0.750954 0.249763 Pb
0.750184 0.751201 0.500340 Pb
0.999973 0.249729 0.750017 Pb
0.249815 0.249681 0.999730 Pb
0.750027 0.249574 0.499927 Pb
0.499897 0.750050 0.750047 Pb
0.750274 0.750424 0.999887 Pb
0.499891 0.249279 0.750325 Pb
0.750045 0.249695 0.000036 Pb
-0.000006 0.000039 0.249962 Pb
0.249868 0.999694 0.500069 Pb
0.000537 0.499603 0.249887 Pb
0.000028 0.999902 0.750011 Pb
0.249902 0.999836 0.999912 Pb
0.499816 0.000154 0.249805 Pb
0.750026 0.000369 0.499980 Pb
0.999738 0.500092 0.749934 Pb
0.249635 0.500264 0.999753 Pb
0.746276 0.500010 0.498042 Pb
0.500026 0.999640 0.750086 Pb
0.750001 0.000068 0.999956 Pb
0.500290 0.500009 0.750655 Pb
0.750428 0.500315 0.000138 Pb
0.750239 0.000550 0.249900 Pb
-0.000040 0.999854 0.499947 Pb
0.752281 0.500524 0.248844 Pb
0.998614 0.499100 0.499446 Pb
0.750060 0.999551 0.750032 Pb
0.000008 0.999897 0.999955 Pb
0.249824 0.999717 0.249813 Pb
0.499947 0.000191 0.499958 Pb
0.750117 0.500579 0.749839 Pb
0.000049 0.499860 0.999872 Pb
0.249900 0.999847 0.750021 Pb
0.500001 0.000190 0.999959 Pb
0.249878 0.499955 0.750375 Pb
0.499426 0.500058 0.998816 Pb
0.984243 0.125014 0.230402 Br
0.233826 0.124704 0.481488 Br
0.985257 0.624764 0.231283 Br
0.230226 0.625424 0.478181 Br
0.984608 0.124915 0.730477 Br
0.234287 0.124931 0.980364 Br
0.484323 0.125280 0.230073 Br
0.733554 0.125460 0.479707 Br
0.984112 0.624937 0.730056 Br
0.233989 0.624957 0.980076 Br
0.485357 0.623251 0.237547 Br
0.484477 0.124725 0.731025 Br
0.733971 0.125155 0.980407 Br
0.734444 0.625152 0.980924 Br
0.230295 0.874540 0.233965 Br
0.480229 0.875020 0.484636 Br
0.232632 0.374569 0.234748 Br
0.230414 0.874806 0.734132 Br
0.480515 0.875015 0.984073 Br
0.732425 0.875913 0.233571 Br
0.980224 0.874556 0.484043 Br
0.232175 0.374930 0.733587 Br
0.478954 0.375717 0.986458 Br
0.731581 0.376074 0.232167 Br
0.978689 0.374594 0.484038 Br
0.729799 0.874841 0.733986 Br
0.980864 0.874825 0.984248 Br
0.980692 0.375017 0.983488 Br
0.769878 0.126000 0.265626 Br
0.019196 0.124764 0.515509 Br
0.770677 0.625906 0.266108 Br
0.015702 0.624004 0.516393 Br
0.770417 0.124234 0.766583 Br
0.019083 0.125001 0.015470 Br
0.269838 0.124375 0.265308 Br
0.518683 0.126106 0.515202 Br
0.769038 0.625079 0.765028 Br
0.019480 0.624756 0.015683 Br
0.269466 0.124786 0.765691 Br
0.519410 0.125435 0.015748 Br
0.268115 0.624834 0.766994 Br
0.518375 0.624519 0.015258 Br
0.015719 0.874986 0.269562 Br
0.265991 0.874508 0.519647 Br
0.016574 0.374817 0.269771 Br
0.015709 0.874847 0.769094 Br
0.265699 0.874853 0.019370 Br
0.514744 0.874876 0.269441 Br
0.766303 0.875429 0.519749 Br
0.015335 0.375117 0.768862 Br
0.265010 0.375109 0.018481 Br
0.761264 0.375648 0.520319 Br
0.515673 0.874274 0.769337 Br
0.765502 0.875160 0.019517 Br
0.516708 0.375175 0.768162 Br
0.764884 0.375214 0.019180 Br
0.873914 0.982269 0.224484 Br
0.123924 0.981897 0.474526 Br
0.875707 0.481857 0.222731 Br
0.119019 0.482163 0.475052 Br
0.873829 0.981904 0.724520 Br
0.123925 0.982052 0.974480 Br
0.373933 0.982015 0.224463 Br
0.623804 0.982188 0.474506 Br
0.873543 0.483446 0.723090 Br
0.123973 0.481995 0.974564 Br
0.377529 0.481611 0.233546 Br
0.373971 0.981984 0.724510 Br
0.623817 0.982087 0.974571 Br
0.623258 0.481877 0.975982 Br
0.974552 0.017897 0.373879 Br
0.224564 0.017834 0.623873 Br
0.973156 0.517593 0.373775 Br
0.224479 0.518078 0.623628 Br
0.974575 0.017846 0.873844 Br
0.224510 0.017911 0.123893 Br
0.474518 0.017896 0.373860 Br
0.724537 0.018127 0.623838 Br
0.974470 0.517981 0.873717 Br
0.227637 0.517852 0.124093 Br
0.474556 0.017904 0.873877 Br
0.724548 0.018084 0.123878 Br
0.475792 0.516970 0.874791 Br
0.724577 0.519381 0.123612 Br
0.025571 0.767788 0.126132 Br
0.275658 0.767968 0.376116 Br
0.025453 0.268059 0.126038 Br
0.025470 0.767954 0.625957 Br
0.275563 0.767997 0.876031 Br
0.524401 0.767615 0.125800 Br
0.774439 0.767779 0.376087 Br
0.025255 0.267897 0.625968 Br
0.275451 0.267962 0.876139 Br
0.525088 0.269022 0.126488 Br
0.776076 0.267774 0.376212 Br
0.525598 0.767772 0.626008 Br
0.775554 0.768073 0.875877 Br
0.775658 0.267453 0.876290 Br
0.126018 0.231922 0.275171 Br
0.375583 0.231804 0.525183 Br
0.126365 0.731836 0.275695 Br
0.126104 0.232088 0.775577 Br
0.376087 0.232193 0.025615 Br
0.626098 0.231694 0.275384 Br
0.875624 0.232114 0.525629 Br
0.126062 0.732062 0.775328 Br
0.376109 0.731831 0.025506 Br
0.875866 0.732324 0.525387 Br
0.626257 0.232489 0.774523 Br
0.875965 0.232116 0.025494 Br
0.625963 0.732021 0.775535 Br
0.876077 0.732133 0.025240 Br
0.874824 0.768383 0.223933 Br
0.123886 0.768050 0.474517 Br
0.873809 0.268133 0.224209 Br
0.123517 0.268021 0.474735 Br
0.873769 0.767948 0.724406 Br
0.123954 0.767931 0.974440 Br
0.373890 0.767877 0.224220 Br
0.623858 0.770866 0.474402 Br
0.873988 0.267428 0.724386 Br
0.123890 0.267970 0.974404 Br
0.373982 0.267305 0.224407 Br
0.373920 0.767809 0.724450 Br
0.623761 0.767765 0.974775 Br
0.623710 0.268172 0.974692 Br
0.974502 0.231994 0.373813 Br
0.224661 0.232236 0.624134 Br
0.974052 0.732380 0.373900 Br
0.224384 0.731780 0.623804 Br
0.974430 0.232030 0.873834 Br
0.224236 0.231921 0.123747 Br
0.474135 0.231476 0.373875 Br
0.725524 0.230475 0.624102 Br
0.974575 0.731987 0.873829 Br
0.224708 0.731764 0.123909 Br
0.474591 0.232272 0.874266 Br
0.724318 0.232081 0.123997 Br
0.474434 0.731767 0.873694 Br
0.725964 0.732649 0.123723 Br
0.126161 0.017992 0.275422 Br
0.376126 0.017853 0.525442 Br
0.127296 0.517393 0.276903 Br
0.126123 0.017922 0.775386 Br
0.376158 0.017884 0.025331 Br
0.625983 0.017970 0.275323 Br
0.876021 0.018039 0.525350 Br
0.126298 0.517633 0.775023 Br
0.376345 0.518213 0.025186 Br
0.865973 0.515561 0.523866 Br
0.626023 0.017970 0.775386 Br
0.876041 0.017901 0.025403 Br
0.625839 0.517899 0.776151 Br
0.875902 0.517895 0.025400 Br
0.025453 0.982032 0.126087 Br
0.275313 0.982039 0.376111 Br
0.025886 0.481996 0.126146 Br
0.025420 0.982039 0.626002 Br
0.275445 0.981985 0.876053 Br
0.525439 0.981988 0.126107 Br
0.775447 0.982177 0.376075 Br
0.023852 0.481692 0.625396 Br
0.275929 0.481832 0.875746 Br
0.521302 0.482298 0.131987 Br
0.775229 0.481739 0.375817 Br
0.525386 0.982193 0.626012 Br
0.775410 0.981812 0.876045 Br
0.775305 0.482752 0.875609 Br
0.381691 0.367114 0.352172 Cs
0.639172 0.367325 0.613904 Cs
0.611739 0.636100 0.381946 Cs
0.351146 0.625936 0.638027 Cs
0.389889 0.371925 0.614688 Cs
0.650966 0.370611 0.362382 Cs
0.614234 0.627772 0.647129 Cs
0.360005 0.629327 0.396160 Cs
0.249429 0.248809 0.249334 Pb
0.499456 0.250761 0.499738 Pb
0.500194 0.249339 0.249859 Pb
0.249416 0.249417 0.500284 Pb
0.505107 0.498115 0.249460 Pb
0.247672 0.501448 0.499756 Pb
0.250318 0.499941 0.250797 Pb
0.499097 0.499723 0.506571 Pb
0.483667 0.623951 0.730074 Br
0.734611 0.625151 0.482133 Br
0.735408 0.374502 0.738438 Br
0.472579 0.376785 0.485211 Br
0.269991 0.624731 0.264835 Br
0.523661 0.624559 0.511311 Br
0.516938 0.374865 0.274529 Br
0.263505 0.375790 0.516744 Br
0.374867 0.482005 0.724214 Br
0.719697 0.515273 0.622669 Br
0.522303 0.267724 0.626106 Br
0.272444 0.264402 0.376040 Br
0.626496 0.737917 0.269860 Br
0.376264 0.729665 0.525084 Br
0.373993 0.266818 0.726273 Br
0.623371 0.270324 0.477048 Br
0.474628 0.732099 0.373905 Br
0.724736 0.732500 0.623778 Br
0.628589 0.524456 0.268872 Br
0.371498 0.523780 0.522201 Br
0.533049 0.481845 0.624369 Br
0.278187 0.482243 0.376463 Br
0.594899 0.491044 0.433876 Br
