Cs64 Pb64 Br191
1.0
16.840035 0.000000 16.155961
0.000000 23.527616 0.000000
-16.840035 0.000000 16.155961
Cs Pb Br Cs Pb Br
56 56 168 8 8 23
direct
0.887383 0.877094 0.353582 Cs
0.136061 0.875302 0.604112 Cs
0.888807 0.374523 0.353862 Cs
0.135684 0.375505 0.602966 Cs
0.887727 0.876680 0.854348 Cs
0.135769 0.875256 0.103500 Cs
0.385043 0.875257 0.353045 Cs
0.636483 0.874916 0.603502 Cs
0.886851 0.375388 0.853804 Cs
0.135787 0.375106 0.103737 Cs
0.385372 0.875645 0.854132 Cs
0.636177 0.875185 0.103464 Cs
0.385781 0.374978 0.857599 Cs
0.635327 0.375247 0.101812 Cs
0.103187 0.125068 0.386143 Cs
0.353531 0.125496 0.636304 Cs
0.102674 0.625246 0.388083 Cs
0.103499 0.125272 0.886503 Cs
0.352827 0.125177 0.135742 Cs
0.606602 0.124877 0.386021 Cs
0.853314 0.125988 0.635416 Cs
0.103511 0.625122 0.885954 Cs
0.354190 0.625126 0.136039 Cs
0.861057 0.628159 0.632916 Cs
0.603279 0.125205 0.886207 Cs
0.856503 0.124568 0.135787 Cs
0.600024 0.625700 0.889820 Cs
0.856245 0.625409 0.137005 Cs
0.896218 0.875032 0.113886 Cs
0.146333 0.875179 0.363869 Cs
0.893686 0.375851 0.113689 Cs
0.146198 0.378022 0.367024 Cs
0.893767 0.875460 0.613212 Cs
0.146778 0.875379 0.864275 Cs
0.395219 0.875178 0.113882 Cs
0.649346 0.875595 0.364125 Cs
0.896624 0.375373 0.612107 Cs
0.146464 0.374914 0.863881 Cs
0.396124 0.375328 0.114951 Cs
0.396329 0.875147 0.616363 Cs
0.646530 0.877926 0.865121 Cs
0.647827 0.375202 0.866995 Cs
0.114122 0.125192 0.146262 Cs
0.363509 0.125022 0.395606 Cs
0.114041 0.625192 0.148198 Cs
0.113838 0.125392 0.646612 Cs
0.363678 0.124954 0.896827 Cs
0.612007 0.123681 0.144193 Cs
0.864617 0.125381 0.399210 Cs
0.114381 0.624703 0.645948 Cs
0.362287 0.624711 0.896690 Cs
0.614620 0.624967 0.146932 Cs
0.868160 0.624355 0.390172 Cs
0.614270 0.125086 0.647414 Cs
0.864356 0.125297 0.896252 Cs
0.863101 0.626458 0.892246 Cs
0.750489 0.750466 0.249444 Pb
0.000250 0.751444 0.500154 Pb
0.752901 0.247849 0.247494 Pb
0.000110 0.250512 0.500114 Pb
0.750764 0.752924 0.750539 Pb
0.000079 0.750001 0.000110 Pb
0.249469 0.750701 0.249625 Pb
0.499704 0.752542 0.499758 Pb
0.750063 0.250832 0.749897 Pb
0.000025 0.250584 0.000112 Pb
0.249781 0.750541 0.750345 Pb
0.499820 0.750842 0.000671 Pb
0.249776 0.250294 0.750233 Pb
0.499838 0.250258 0.000370 Pb
0.000461 0.750846 0.249968 Pb
0.250266 0.750585 0.500342 Pb
0.001028 0.250222 0.250154 Pb
0.000550 0.751089 0.750481 Pb
0.249790 0.750351 0.000067 Pb
0.499984 0.750512 0.249979 Pb
0.750151 0.749297 0.497081 Pb
0.999866 0.250449 0.749995 Pb
0.249893 0.250438 0.000151 Pb
0.750104 0.252958 0.500137 Pb
0.499642 0.750892 0.753418 Pb
0.750208 0.750569 0.999895 Pb
0.499890 0.250354 0.751982 Pb
0.750347 0.250048 0.999815 Pb
0.000117 0.000461 0.249985 Pb
0.249768 0.000074 0.500045 Pb
0.000839 0.499732 0.250265 Pb
0.999996 0.000654 0.749933 Pb
0.249844 0.000422 0.000012 Pb
0.500070 0.999597 0.250011 Pb
0.750170 0.000790 0.500053 Pb
0.999228 0.500121 0.750203 Pb
0.249502 0.500225 0.000203 Pb
0.738153 0.500515 0.495559 Pb
0.499853 0.000836 0.750316 Pb
0.750248 0.000765 0.000155 Pb
0.499643 0.498660 0.753325 Pb
0.749715 0.502466 0.000156 Pb
0.750347 0.000377 0.249770 Pb
0.000137 0.000551 0.500247 Pb
0.751001 0.498538 0.250097 Pb
0.995825 0.501337 0.502318 Pb
0.750316 0.001055 0.750175 Pb
0.000149 0.000388 0.000108 Pb
0.249838 0.000507 0.249947 Pb
0.500126 0.001425 0.500216 Pb
0.747093 0.499911 0.747326 Pb
0.000053 0.500638 0.000075 Pb
0.249847 0.000648 0.750100 Pb
0.499644 0.000173 0.000095 Pb
0.249501 0.499858 0.750815 Pb
0.499674 0.500710 0.002959 Pb
0.985460 0.125457 0.231286 Br
0.234475 0.125194 0.480411 Br
0.984309 0.625464 0.234701 Br
0.233475 0.626099 0.481578 Br
0.983487 0.125830 0.730224 Br
0.234181 0.125572 0.981175 Br
0.482771 0.124075 0.230398 Br
0.735300 0.126616 0.483661 Br
0.986103 0.625904 0.732400 Br
0.233726 0.625419 0.981293 Br
0.485290 0.624640 0.231861 Br
0.484072 0.125265 0.731596 Br
0.734391 0.125878 0.978915 Br
0.734007 0.626369 0.977010 Br
0.230482 0.875606 0.234265 Br
0.481534 0.869485 0.485739 Br
0.229005 0.375328 0.235693 Br
0.231304 0.875490 0.734357 Br
0.480101 0.875346 0.984530 Br
0.731121 0.875199 0.233244 Br
0.980588 0.876031 0.484955 Br
0.230238 0.375489 0.733217 Br
0.482347 0.375758 0.986612 Br
0.736749 0.373616 0.226109 Br
0.984342 0.375953 0.484410 Br
0.729855 0.876552 0.733899 Br
0.981217 0.875459 0.985076 Br
0.979807 0.375817 0.985303 Br
0.774244 0.124384 0.266567 Br
0.018394 0.125735 0.516259 Br
0.767194 0.624459 0.264906 Br
0.015360 0.626295 0.517606 Br
0.769759 0.126426 0.765331 Br
0.018745 0.125696 0.016125 Br
0.269205 0.125455 0.265657 Br
0.518894 0.124668 0.514923 Br
0.767190 0.626036 0.758225 Br
0.020705 0.625542 0.016685 Br
0.269681 0.125601 0.765818 Br
0.517616 0.125250 0.014992 Br
0.267048 0.625356 0.767172 Br
0.517552 0.625913 0.019279 Br
0.016592 0.875674 0.269067 Br
0.267297 0.875391 0.520700 Br
0.017749 0.375257 0.269583 Br
0.016704 0.875969 0.769828 Br
0.265279 0.875467 0.019012 Br
0.516139 0.874421 0.272850 Br
0.763478 0.875147 0.516700 Br
0.015931 0.375760 0.769643 Br
0.266077 0.375549 0.019684 Br
0.761597 0.377473 0.524794 Br
0.514783 0.875276 0.769473 Br
0.765402 0.875810 0.018929 Br
0.516137 0.374612 0.775547 Br
0.764331 0.376589 0.016464 Br
0.874018 0.981877 0.224442 Br
0.124162 0.982047 0.474722 Br
0.874979 0.482892 0.225417 Br
0.126757 0.486079 0.478701 Br
0.873813 0.982202 0.724538 Br
0.123880 0.982363 0.974556 Br
0.374074 0.981768 0.224953 Br
0.623285 0.982462 0.474693 Br
0.870836 0.484613 0.720660 Br
0.123832 0.481950 0.974327 Br
0.374060 0.482110 0.227223 Br
0.373999 0.982591 0.724705 Br
0.623684 0.983550 0.976119 Br
0.623735 0.483923 0.976237 Br
0.974600 0.018205 0.374108 Br
0.224549 0.018295 0.623852 Br
0.977224 0.515780 0.374793 Br
0.227453 0.518290 0.624332 Br
0.974650 0.018253 0.873889 Br
0.224537 0.017996 0.124028 Br
0.474536 0.017750 0.374831 Br
0.724356 0.017734 0.623952 Br
0.973630 0.518279 0.873883 Br
0.224342 0.517827 0.124014 Br
0.474532 0.017856 0.873868 Br
0.724897 0.018573 0.123946 Br
0.473952 0.518028 0.877333 Br
0.726921 0.519796 0.119538 Br
0.025604 0.767844 0.126166 Br
0.275568 0.768040 0.376354 Br
0.025438 0.268055 0.126208 Br
0.024736 0.768332 0.626331 Br
0.275413 0.768117 0.876086 Br
0.524549 0.768811 0.127363 Br
0.776518 0.770956 0.374415 Br
0.025705 0.268220 0.626129 Br
0.275119 0.268039 0.876146 Br
0.525222 0.267975 0.126535 Br
0.777003 0.267125 0.375656 Br
0.527398 0.764426 0.626911 Br
0.778415 0.768526 0.875389 Br
0.775648 0.268956 0.875991 Br
0.126494 0.231958 0.275936 Br
0.376554 0.232484 0.524835 Br
0.126269 0.732262 0.276324 Br
0.125788 0.232083 0.775528 Br
0.376018 0.232565 0.025617 Br
0.626813 0.227402 0.270853 Br
0.875820 0.235244 0.525966 Br
0.126138 0.732612 0.775390 Br
0.376075 0.732447 0.025756 Br
0.876179 0.735189 0.522245 Br
0.626114 0.232058 0.775528 Br
0.875973 0.232375 0.025426 Br
0.626368 0.738617 0.785326 Br
0.875946 0.731974 0.025404 Br
0.874121 0.767933 0.224743 Br
0.125826 0.768315 0.475520 Br
0.875223 0.267189 0.222851 Br
0.124140 0.267681 0.474462 Br
0.873615 0.768583 0.724988 Br
0.123896 0.768168 0.974469 Br
0.374131 0.768097 0.225312 Br
0.623136 0.765048 0.472261 Br
0.873598 0.270752 0.724564 Br
0.123839 0.268263 0.974584 Br
0.374230 0.267936 0.224925 Br
0.374490 0.767691 0.725123 Br
0.623651 0.768551 0.974788 Br
0.623781 0.267309 0.975331 Br
0.974529 0.232259 0.374103 Br
0.225046 0.232424 0.623802 Br
0.976560 0.734516 0.374264 Br
0.224858 0.732064 0.624041 Br
0.974549 0.232439 0.873875 Br
0.224477 0.232410 0.124023 Br
0.474685 0.232115 0.374642 Br
0.724081 0.232376 0.623809 Br
0.974826 0.732467 0.873935 Br
0.224407 0.732475 0.124015 Br
0.474120 0.231716 0.874607 Br
0.725275 0.228579 0.123408 Br
0.471933 0.732429 0.875258 Br
0.725141 0.731922 0.123095 Br
0.126239 0.018068 0.275696 Br
0.376653 0.017817 0.525645 Br
0.126471 0.519173 0.276854 Br
0.126120 0.018429 0.775499 Br
0.375952 0.017963 0.025640 Br
0.626158 0.018210 0.275274 Br
0.875932 0.017692 0.525917 Br
0.124322 0.517806 0.774793 Br
0.375866 0.517859 0.025936 Br
0.873420 0.515904 0.523223 Br
0.626064 0.018347 0.775569 Br
0.876063 0.017892 0.025264 Br
0.625462 0.518682 0.780626 Br
0.875907 0.519781 0.023902 Br
0.025377 0.982404 0.126174 Br
0.275491 0.982074 0.376290 Br
0.025311 0.482513 0.126148 Br
0.025378 0.982140 0.626128 Br
0.275349 0.982474 0.876074 Br
0.524991 0.981577 0.126516 Br
0.775565 0.983047 0.376221 Br
0.024943 0.482373 0.626745 Br
0.274876 0.481986 0.876348 Br
0.524292 0.482078 0.130035 Br
0.774821 0.477722 0.371242 Br
0.525505 0.982086 0.625702 Br
0.775541 0.982350 0.876042 Br
0.775021 0.485019 0.866393 Br
0.384977 0.375114 0.354034 Cs
0.631574 0.371197 0.603878 Cs
0.606634 0.624327 0.378612 Cs
0.351667 0.624367 0.639354 Cs
0.389949 0.374926 0.615606 Cs
0.650212 0.363969 0.352253 Cs
0.619309 0.636035 0.669946 Cs
0.358114 0.625155 0.392035 Cs
0.249742 0.250311 0.250045 Pb
0.499963 0.248628 0.500042 Pb
0.499889 0.248925 0.249582 Pb
0.249461 0.249783 0.499630 Pb
0.499980 0.499820 0.252915 Pb
0.250358 0.501272 0.500072 Pb
0.249441 0.499762 0.249749 Pb
0.504068 0.495074 0.501644 Pb
0.482544 0.624633 0.735169 Br
0.737508 0.626021 0.467517 Br
0.726381 0.376291 0.733059 Br
0.479330 0.379418 0.486566 Br
0.266913 0.625503 0.262915 Br
0.514011 0.374107 0.270315 Br
0.264497 0.375901 0.516458 Br
0.373497 0.481894 0.728221 Br
0.621648 0.473718 0.450837 Br
0.475595 0.524487 0.379587 Br
0.522146 0.264891 0.626090 Br
0.275547 0.267904 0.376191 Br
0.626176 0.733602 0.274111 Br
0.378658 0.728116 0.525703 Br
0.373866 0.268495 0.726851 Br
0.623080 0.267471 0.472955 Br
0.475560 0.727305 0.376564 Br
0.727053 0.733912 0.622634 Br
0.626344 0.515680 0.271798 Br
0.383380 0.523767 0.522510 Br
0.517650 0.474305 0.629176 Br
0.275415 0.483032 0.376263 Br
0.679316 0.525604 0.598106 Br
