Cs64 Pb64 Br191
1.0
16.840035 0.000000 16.155961
0.000000 23.527616 0.000000
-16.840035 0.000000 16.155961
Cs Pb Br Cs Pb Br
56 56 168 8 8 23
Selective dynamics
direct
0.886162 0.875277 0.353775 F F F
0.136282 0.875228 0.603803 F F F
0.889208 0.374119 0.352656 F F F
0.136878 0.375061 0.604015 F F F
0.886242 0.875538 0.854140 F F F
0.136414 0.875264 0.103855 F F F
0.386006 0.875235 0.353557 F F F
0.636171 0.875696 0.603975 F F F
0.889380 0.373079 0.854280 F F F
0.136146 0.375124 0.103773 F F F
0.386111 0.875391 0.854169 F F F
0.636225 0.875353 0.103742 F F F
0.386460 0.375021 0.853783 F F F
0.635642 0.374240 0.103584 F F F
0.103987 0.124975 0.386104 F F F
0.353938 0.125152 0.636227 F F F
0.103414 0.625438 0.386827 F F F
0.104187 0.124987 0.886589 F F F
0.353678 0.125110 0.136203 F F F
0.603898 0.124809 0.385781 F F F
0.853453 0.125032 0.636113 F F F
0.103616 0.625284 0.885901 F F F
0.353592 0.625325 0.136075 F F F
0.868251 0.632528 0.636062 F F F
0.603736 0.124978 0.886199 F F F
0.853798 0.125162 0.136270 F F F
0.601922 0.626400 0.887632 F F F
0.856753 0.625980 0.136837 F F F
0.896431 0.875289 0.114138 F F F
0.146883 0.875335 0.364095 F F F
0.897479 0.374822 0.114221 F F F
0.147165 0.375004 0.364115 F F F
0.896579 0.876124 0.613795 F F F
0.147400 0.875408 0.864531 F F F
0.396423 0.875275 0.114153 F F F
0.646592 0.875298 0.364023 F F F
0.901065 0.373426 0.615108 F F F
0.147004 0.374885 0.864143 F F F
0.396535 0.375149 0.114329 F F F
0.396330 0.875391 0.614059 F F F
0.646859 0.875314 0.864508 F F F
0.643450 0.374420 0.863801 F F F
0.114340 0.125052 0.146704 F F F
0.363889 0.124899 0.396262 F F F
0.114313 0.625267 0.146422 F F F
0.114487 0.125024 0.646571 F F F
0.364076 0.125044 0.896656 F F F
0.614240 0.125080 0.146782 F F F
0.864447 0.125147 0.396377 F F F
0.114664 0.625346 0.646578 F F F
0.363949 0.625174 0.896516 F F F
0.612660 0.626319 0.146911 F F F
0.864566 0.627967 0.398401 F F F
0.613770 0.124427 0.647099 F F F
0.864205 0.125136 0.896667 F F F
0.864529 0.626680 0.895798 F F F
0.750061 0.750257 0.249912 F F F
0.000808 0.751390 0.499709 F F F
0.750081 0.250528 0.250246 F F F
0.000404 0.249894 0.500084 F F F
0.750286 0.750748 0.750087 F F F
0.000278 0.750609 0.000151 F F F
0.250090 0.750392 0.250063 F F F
0.499783 0.750471 0.499955 F F F
0.749939 0.250650 0.750034 F F F
0.000381 0.249810 0.000356 F F F
0.250118 0.750559 0.750197 F F F
0.499903 0.750615 0.000251 F F F
0.250171 0.250043 0.750199 F F F
0.499984 0.249953 0.000316 F F F
0.000444 0.750735 0.250092 F F F
0.250386 0.750462 0.500110 F F F
0.000457 0.249967 0.250054 F F F
0.001054 0.752203 0.750827 F F F
0.250131 0.750430 0.000136 F F F
0.500063 0.750496 0.250163 F F F
0.749757 0.750971 0.500078 F F F
0.000402 0.249446 0.750122 F F F
0.250150 0.250394 0.000185 F F F
0.750442 0.250179 0.500216 F F F
0.499636 0.750972 0.750479 F F F
0.750135 0.750292 0.000250 F F F
0.499692 0.249466 0.750710 F F F
0.750129 0.250415 0.000114 F F F
0.000187 0.000287 0.250082 F F F
0.250115 0.000339 0.500072 F F F
0.000581 0.500320 0.250259 F F F
0.000218 0.000647 0.750154 F F F
0.250131 0.000376 0.000154 F F F
0.500005 0.000137 0.250029 F F F
0.750055 0.000507 0.499980 F F F
0.000617 0.499661 0.750435 F F F
0.250071 0.500380 0.000140 F F F
0.753537 0.497276 0.495521 F F F
0.499995 0.999978 0.750263 F F F
0.750100 0.000442 0.000129 F F F
0.499812 0.500733 0.750068 F F F
0.749786 0.500749 0.003202 F F F
0.750135 0.000441 0.250125 F F F
0.000283 0.000580 0.500106 F F F
0.749825 0.500635 0.249045 F F F
0.000617 0.500166 0.499993 F F F
0.750169 0.000569 0.750241 F F F
0.000213 0.000291 0.000195 F F F
0.250124 0.000446 0.250106 F F F
0.499971 0.999873 0.499988 F F F
0.751015 0.499062 0.755831 F F F
0.000425 0.500310 0.000134 F F F
0.250140 0.000370 0.750146 F F F
0.500099 0.000434 0.000204 F F F
0.250178 0.500254 0.750269 F F F
0.499926 0.500367 0.000404 F F F
0.984478 0.125539 0.230853 F F F
0.234581 0.125494 0.480816 F F F
0.985516 0.625421 0.231930 F F F
0.234859 0.625299 0.480902 F F F
0.984127 0.125517 0.729959 F F F
0.234757 0.125602 0.981093 F F F
0.484628 0.125379 0.230903 F F F
0.735085 0.126309 0.480494 F F F
0.989171 0.625771 0.736252 F F F
0.234466 0.625478 0.980763 F F F
0.483642 0.625450 0.231262 F F F
0.484187 0.125130 0.731933 F F F
0.734695 0.125911 0.980689 F F F
0.734445 0.624611 0.979522 F F F
0.231130 0.875431 0.234602 F F F
0.480716 0.874884 0.484385 F F F
0.230632 0.375620 0.234288 F F F
0.230906 0.875425 0.734426 F F F
0.481070 0.875483 0.984736 F F F
0.731202 0.875114 0.234721 F F F
0.981366 0.875878 0.484251 F F F
0.231593 0.375490 0.734474 F F F
0.481548 0.375578 0.984615 F F F
0.729244 0.376282 0.235212 F F F
0.981319 0.375773 0.484064 F F F
0.731275 0.875116 0.734784 F F F
0.980684 0.875423 0.984727 F F F
0.981645 0.375322 0.985107 F F F
0.769439 0.125971 0.266365 F F F
0.020010 0.125769 0.516092 F F F
0.771485 0.624635 0.266591 F F F
0.016598 0.625761 0.517468 F F F
0.769200 0.126375 0.766129 F F F
0.019971 0.125344 0.016219 F F F
0.269577 0.125597 0.265888 F F F
0.520415 0.124701 0.515715 F F F
0.772924 0.623932 0.758374 F F F
0.019286 0.625343 0.015585 F F F
0.269958 0.125464 0.765981 F F F
0.520240 0.125536 0.016159 F F F
0.268972 0.625354 0.766099 F F F
0.518777 0.625480 0.016703 F F F
0.016091 0.875533 0.270177 F F F
0.265933 0.875361 0.519684 F F F
0.017469 0.375531 0.268723 F F F
0.016753 0.876147 0.770910 F F F
0.265997 0.875500 0.019520 F F F
0.516123 0.875287 0.269951 F F F
0.765344 0.875293 0.519285 F F F
0.016766 0.375208 0.768328 F F F
0.265961 0.375678 0.019803 F F F
0.765452 0.376303 0.529116 F F F
0.516362 0.875251 0.770583 F F F
0.765752 0.875128 0.018975 F F F
0.515722 0.375751 0.766869 F F F
0.766403 0.376256 0.020347 F F F
0.873993 0.982252 0.224710 F F F
0.124016 0.982257 0.474689 F F F
0.873543 0.481803 0.224977 F F F
0.123917 0.482518 0.474645 F F F
0.873971 0.982284 0.724761 F F F
0.124014 0.982249 0.974726 F F F
0.374129 0.982216 0.224690 F F F
0.624172 0.982174 0.474646 F F F
0.872574 0.482560 0.722350 F F F
0.123857 0.482299 0.974468 F F F
0.374497 0.482199 0.225484 F F F
0.374154 0.982085 0.724723 F F F
0.624159 0.982269 0.974673 F F F
0.624935 0.482218 0.975129 F F F
0.974655 0.018192 0.374086 F F F
0.224738 0.018072 0.624017 F F F
0.973344 0.518722 0.374425 F F F
0.224743 0.518024 0.624023 F F F
0.974633 0.018325 0.873985 F F F
0.224681 0.018066 0.124040 F F F
0.474670 0.018066 0.374094 F F F
0.724694 0.018048 0.624009 F F F
0.973229 0.516822 0.873869 F F F
0.224814 0.518144 0.124069 F F F
0.474674 0.018065 0.874070 F F F
0.724714 0.018089 0.124031 F F F
0.475017 0.517914 0.874002 F F F
0.724771 0.518636 0.124883 F F F
0.025647 0.768085 0.126321 F F F
0.275762 0.768012 0.376281 F F F
0.025687 0.267957 0.126210 F F F
0.025064 0.767786 0.626380 F F F
0.275840 0.768090 0.876157 F F F
0.525810 0.768143 0.126357 F F F
0.775533 0.767546 0.376212 F F F
0.026344 0.267829 0.626200 F F F
0.275710 0.268190 0.876163 F F F
0.525666 0.267966 0.126333 F F F
0.775031 0.271590 0.376671 F F F
0.525864 0.768404 0.626427 F F F
0.776056 0.767361 0.876032 F F F
0.774698 0.271149 0.875980 F F F
0.126146 0.232122 0.275754 F F F
0.376172 0.232201 0.525258 F F F
0.126197 0.732191 0.275794 F F F
0.126032 0.232002 0.775760 F F F
0.376305 0.232263 0.025716 F F F
0.626233 0.232465 0.275804 F F F
0.876164 0.232278 0.525717 F F F
0.126419 0.733145 0.776123 F F F
0.376255 0.732279 0.025601 F F F
0.876280 0.736143 0.523838 F F F
0.626196 0.232269 0.775490 F F F
0.876120 0.232265 0.025445 F F F
0.626546 0.731815 0.775720 F F F
0.876097 0.732117 0.025434 F F F
0.874002 0.768034 0.224710 F F F
0.124337 0.767996 0.474529 F F F
0.873960 0.268398 0.224812 F F F
0.123957 0.268210 0.474570 F F F
0.874315 0.768793 0.724723 F F F
0.123978 0.768111 0.974621 F F F
0.374210 0.768114 0.224710 F F F
0.624155 0.768064 0.474660 F F F
0.873797 0.268369 0.724975 F F F
0.124019 0.268062 0.974627 F F F
0.374086 0.268206 0.224815 F F F
0.374291 0.768230 0.724561 F F F
0.624122 0.767958 0.974646 F F F
0.624130 0.268158 0.974723 F F F
0.974667 0.232278 0.374095 F F F
0.224812 0.232255 0.624009 F F F
0.974991 0.732462 0.374245 F F F
0.224686 0.732266 0.624049 F F F
0.974741 0.232068 0.873950 F F F
0.224674 0.232253 0.124053 F F F
0.474438 0.232236 0.373995 F F F
0.724102 0.231470 0.624052 F F F
0.974660 0.732948 0.874132 F F F
0.224709 0.732235 0.124035 F F F
0.474580 0.232282 0.874402 F F F
0.724738 0.232490 0.124187 F F F
0.474562 0.732178 0.874117 F F F
0.724804 0.731608 0.123966 F F F
0.126182 0.018089 0.275611 F F F
0.376306 0.018144 0.525616 F F F
0.126051 0.518267 0.276030 F F F
0.126174 0.018340 0.775610 F F F
0.376302 0.018136 0.025624 F F F
0.626309 0.017954 0.275551 F F F
0.876103 0.018093 0.525600 F F F
0.125995 0.517446 0.775722 F F F
0.376454 0.517996 0.025632 F F F
0.876105 0.518150 0.529296 F F F
0.626336 0.017985 0.775643 F F F
0.876136 0.018146 0.025629 F F F
0.627294 0.521668 0.775405 F F F
0.875775 0.518355 0.025390 F F F
0.025598 0.982113 0.126215 F F F
0.275656 0.982278 0.376225 F F F
0.025400 0.482521 0.126351 F F F
0.025593 0.982062 0.626214 F F F
0.275639 0.982310 0.876166 F F F
0.525694 0.982192 0.126231 F F F
0.775646 0.982317 0.376261 F F F
0.026283 0.483005 0.626296 F F F
0.275751 0.482089 0.876102 F F F
0.526479 0.482861 0.126464 F F F
0.776619 0.480670 0.379921 F F F
0.525519 0.982144 0.626231 F F F
0.775665 0.982418 0.876104 F F F
0.776321 0.481654 0.872857 F F F
0.387689 0.375093 0.356696 F F F
0.629110 0.367040 0.601113 F F F
0.605044 0.625808 0.388331 F F F
0.352989 0.625459 0.636271 F F F
0.396308 0.374763 0.614513 F F F
0.642887 0.374821 0.363884 F F F
0.611159 0.630926 0.649015 F F F
0.364176 0.624928 0.396060 F F F
0.250159 0.250449 0.250047 F F F
0.499549 0.248594 0.499565 F F F
0.499876 0.250020 0.249791 F F F
0.249949 0.250181 0.499952 F F F
0.499969 0.500644 0.250064 F F F
0.250173 0.500318 0.500073 F F F
0.250185 0.500304 0.250148 F F F
0.500336 0.500935 0.501098 F F F
0.482923 0.625757 0.731595 F F F
0.735648 0.623205 0.487315 F F F
0.726159 0.377066 0.730990 F F F
0.484632 0.375222 0.487611 F F F
0.269602 0.625395 0.265831 F F F
0.514949 0.375616 0.268850 F F F
0.266244 0.375556 0.519394 F F F
0.374850 0.482333 0.724582 F F F
0.626700 0.481648 0.479114 F F F
0.477136 0.518327 0.375182 F F F
0.522107 0.263717 0.626287 F F F
0.275895 0.268251 0.376249 F F F
0.626374 0.731537 0.275926 F F F
0.376428 0.731916 0.525780 F F F
0.373992 0.268006 0.724926 F F F
0.624144 0.267257 0.474275 F F F
0.474911 0.731858 0.374379 F F F
0.725496 0.732352 0.624033 F F F
0.626963 0.519163 0.276662 F F F
0.377001 0.517608 0.526424 F F F
0.531153 0.485162 0.626903 F F F
0.276008 0.482132 0.376335 F F F
0.521112 0.625400 0.517347 T T T