Cs64 Pb64 Br191
1.0
16.840035 0.000000 16.155961
0.000000 23.527616 0.000000
-16.840035 0.000000 16.155961
Cs Pb Br Cs Pb Br
56 56 168 8 8 23
Selective dynamics
direct
0.885843 0.875099 0.353679 F F F
0.135599 0.874996 0.603952 F F F
0.885532 0.375935 0.352974 F F F
0.134992 0.374998 0.607011 F F F
0.886359 0.875211 0.853952 F F F
0.135998 0.875122 0.103700 F F F
0.385740 0.875555 0.353218 F F F
0.636526 0.875444 0.603775 F F F
0.885393 0.374801 0.853560 F F F
0.136277 0.374854 0.104241 F F F
0.386009 0.874947 0.853671 F F F
0.636047 0.875075 0.104103 F F F
0.387607 0.374251 0.849744 F F F
0.638080 0.374638 0.103447 F F F
0.102107 0.124722 0.385440 F F F
0.355034 0.124393 0.636757 F F F
0.102862 0.625822 0.386331 F F F
0.103506 0.124727 0.886162 F F F
0.353465 0.124854 0.135763 F F F
0.603686 0.124913 0.385674 F F F
0.856645 0.123856 0.636150 F F F
0.103439 0.625056 0.885591 F F F
0.353916 0.625330 0.135882 F F F
0.861373 0.628223 0.638958 F F F
0.604151 0.125880 0.884981 F F F
0.854166 0.124818 0.136296 F F F
0.608247 0.624999 0.885531 F F F
0.853231 0.625245 0.136843 F F F
0.896477 0.875198 0.114121 F F F
0.146183 0.875147 0.363764 F F F
0.896274 0.375043 0.114151 F F F
0.146873 0.375006 0.364227 F F F
0.895021 0.875017 0.613397 F F F
0.146641 0.875125 0.864335 F F F
0.396116 0.875500 0.113235 F F F
0.646600 0.875589 0.363983 F F F
0.895669 0.374920 0.614450 F F F
0.147813 0.374868 0.863812 F F F
0.395767 0.374741 0.112306 F F F
0.396203 0.875257 0.614077 F F F
0.646334 0.874993 0.864203 F F F
0.647045 0.375159 0.863279 F F F
0.113869 0.124940 0.146131 F F F
0.363347 0.124427 0.395848 F F F
0.113770 0.625125 0.145625 F F F
0.114437 0.125122 0.645840 F F F
0.364232 0.124904 0.896317 F F F
0.614064 0.124829 0.145689 F F F
0.864192 0.124966 0.396330 F F F
0.113427 0.625617 0.646418 F F F
0.364030 0.624867 0.897011 F F F
0.614219 0.625854 0.143931 F F F
0.860702 0.625271 0.396389 F F F
0.612865 0.122208 0.645359 F F F
0.864748 0.124555 0.899205 F F F
0.866038 0.625301 0.900515 F F F
0.750467 0.750833 0.249744 F F F
0.999752 0.750123 0.499595 F F F
0.750289 0.249863 0.249945 F F F
0.999440 0.249794 0.499864 F F F
0.750562 0.750191 0.750691 F F F
0.000116 0.750339 0.000124 F F F
0.249788 0.750270 0.249881 F F F
0.499258 0.751429 0.499786 F F F
0.753738 0.247538 0.750730 F F F
0.000078 0.250202 0.999988 F F F
0.249875 0.750398 0.750300 F F F
0.499934 0.749905 0.999411 F F F
0.249573 0.248725 0.750945 F F F
0.500137 0.250000 0.000210 F F F
0.000082 0.750129 0.250011 F F F
0.249808 0.750670 0.499812 F F F
0.000107 0.250357 0.250018 F F F
0.000383 0.750901 0.750480 F F F
0.249879 0.749980 0.000003 F F F
0.499243 0.751821 0.248990 F F F
0.749707 0.749534 0.499680 F F F
0.000491 0.249579 0.750343 F F F
0.249903 0.249771 0.000018 F F F
0.749660 0.250361 0.500565 F F F
0.500210 0.749330 0.749547 F F F
0.750220 0.750566 0.000288 F F F
0.499953 0.248680 0.750597 F F F
0.750180 0.249430 0.000185 F F F
0.000016 0.000069 0.249961 F F F
0.249860 0.999603 0.499959 F F F
0.999932 0.500243 0.249852 F F F
0.000163 0.999840 0.750134 F F F
0.249970 0.999991 0.999956 F F F
0.499900 0.000528 0.249797 F F F
0.749898 0.000439 0.499798 F F F
0.000778 0.499396 0.750856 F F F
0.250031 0.499996 0.999910 F F F
0.747737 0.500405 0.507430 F F F
0.500130 0.999056 0.750320 F F F
0.749960 0.999852 0.000090 F F F
0.500442 0.502019 0.747428 F F F
0.750488 0.500087 0.002849 F F F
0.750121 0.000403 0.249982 F F F
0.000026 0.999747 0.499972 F F F
0.749896 0.499823 0.252826 F F F
0.999265 0.499719 0.499137 F F F
0.750338 0.999537 0.750225 F F F
0.000074 0.000057 0.000066 F F F
0.249900 0.000070 0.249883 F F F
0.499798 0.000470 0.499760 F F F
0.753446 0.502906 0.753376 F F F
0.000209 0.499619 0.000115 F F F
0.249896 0.999631 0.750049 F F F
0.500082 0.999923 0.999924 F F F
0.250607 0.500282 0.750480 F F F
0.500416 0.499479 0.998112 F F F
0.984661 0.125405 0.231420 F F F
0.232228 0.124086 0.479304 F F F
0.984477 0.625110 0.230336 F F F
0.235234 0.624829 0.480625 F F F
0.985743 0.124844 0.731229 F F F
0.234400 0.125032 0.980486 F F F
0.484254 0.125846 0.230058 F F F
0.733877 0.126131 0.479573 F F F
0.988111 0.624956 0.735129 F F F
0.234107 0.624795 0.980457 F F F
0.485541 0.625737 0.231235 F F F
0.485246 0.124263 0.733280 F F F
0.733377 0.124871 0.981552 F F F
0.735000 0.624872 0.984013 F F F
0.230883 0.875109 0.234246 F F F
0.479992 0.876186 0.483843 F F F
0.231856 0.375539 0.235215 F F F
0.230884 0.874617 0.734099 F F F
0.481098 0.874731 0.983521 F F F
0.731686 0.875527 0.234303 F F F
0.980474 0.874644 0.484242 F F F
0.235573 0.374645 0.733434 F F F
0.479769 0.375425 0.981743 F F F
0.730989 0.375115 0.234322 F F F
0.979341 0.375355 0.483986 F F F
0.730951 0.874893 0.734664 F F F
0.981065 0.875107 0.984520 F F F
0.980255 0.375047 0.984161 F F F
0.769614 0.125536 0.266268 F F F
0.018104 0.125102 0.515990 F F F
0.767043 0.625117 0.266415 F F F
0.016708 0.624280 0.516976 F F F
0.772654 0.124023 0.767605 F F F
0.018714 0.125186 0.015686 F F F
0.269085 0.125182 0.265350 F F F
0.518851 0.126213 0.514352 F F F
0.774873 0.626302 0.769736 F F F
0.018457 0.624879 0.015061 F F F
0.269267 0.124399 0.765958 F F F
0.519483 0.125344 0.014857 F F F
0.269055 0.624782 0.767167 F F F
0.519864 0.624304 0.013109 F F F
0.015554 0.875098 0.269350 F F F
0.265589 0.874754 0.519681 F F F
0.016066 0.375511 0.270011 F F F
0.016723 0.875207 0.769899 F F F
0.265545 0.874874 0.018821 F F F
0.515849 0.875924 0.268849 F F F
0.764804 0.874596 0.516857 F F F
0.016683 0.374647 0.769595 F F F
0.265141 0.375082 0.018874 F F F
0.757698 0.375964 0.530651 F F F
0.515968 0.873557 0.769194 F F F
0.765807 0.875103 0.019854 F F F
0.519326 0.375961 0.759674 F F F
0.766674 0.374688 0.017826 F F F
0.873977 0.982281 0.224522 F F F
0.123910 0.981845 0.474555 F F F
0.873913 0.482271 0.225450 F F F
0.120368 0.483386 0.474648 F F F
0.874062 0.981672 0.724428 F F F
0.124005 0.982199 0.974532 F F F
0.374029 0.982187 0.224362 F F F
0.623916 0.982402 0.474583 F F F
0.876616 0.482457 0.725866 F F F
0.124087 0.481957 0.974382 F F F
0.374384 0.482149 0.224213 F F F
0.374190 0.982041 0.724577 F F F
0.623949 0.982115 0.974431 F F F
0.624018 0.481912 0.974081 F F F
0.974426 0.017840 0.374035 F F F
0.224700 0.018015 0.623933 F F F
0.973176 0.519219 0.374110 F F F
0.221638 0.517376 0.623859 F F F
0.974572 0.017857 0.873975 F F F
0.224503 0.017944 0.123928 F F F
0.474513 0.018128 0.373882 F F F
0.724985 0.017672 0.623897 F F F
0.974638 0.517512 0.874214 F F F
0.224871 0.517980 0.123942 F F F
0.474619 0.017677 0.873916 F F F
0.724543 0.018001 0.124011 F F F
0.478041 0.517939 0.863742 F F F
0.723916 0.517066 0.127079 F F F
0.025703 0.767926 0.126243 F F F
0.275769 0.767896 0.376116 F F F
0.025501 0.268087 0.126115 F F F
0.024910 0.767590 0.625927 F F F
0.275799 0.767855 0.876001 F F F
0.525048 0.767956 0.125008 F F F
0.775239 0.767806 0.375785 F F F
0.025379 0.267741 0.625980 F F F
0.276091 0.268331 0.875931 F F F
0.526346 0.268972 0.126111 F F F
0.773971 0.270562 0.376796 F F F
0.525688 0.768545 0.625387 F F F
0.775458 0.768327 0.876198 F F F
0.776293 0.265421 0.876323 F F F
0.126124 0.232294 0.275632 F F F
0.373375 0.229389 0.523424 F F F
0.126213 0.731964 0.275613 F F F
0.126424 0.232045 0.775944 F F F
0.376215 0.232124 0.025608 F F F
0.626010 0.232310 0.275724 F F F
0.874905 0.232573 0.525328 F F F
0.126437 0.732493 0.775688 F F F
0.376145 0.731888 0.025189 F F F
0.875579 0.731657 0.524420 F F F
0.627178 0.234422 0.770313 F F F
0.876008 0.232041 0.025903 F F F
0.626367 0.730736 0.773422 F F F
0.876110 0.732495 0.026168 F F F
0.874245 0.767917 0.224340 F F F
0.123760 0.767703 0.474231 F F F
0.873914 0.268110 0.224665 F F F
0.122342 0.267421 0.473400 F F F
0.874519 0.768655 0.724854 F F F
0.124052 0.767850 0.974503 F F F
0.373774 0.768485 0.223571 F F F
0.623630 0.767912 0.474524 F F F
0.875723 0.266618 0.722857 F F F
0.124002 0.268011 0.974341 F F F
0.374076 0.268087 0.223803 F F F
0.374254 0.767906 0.724554 F F F
0.624027 0.767756 0.974494 F F F
0.624041 0.268327 0.973984 F F F
0.974021 0.232345 0.373974 F F F
0.226190 0.232998 0.623752 F F F
0.973614 0.731049 0.374008 F F F
0.223917 0.732387 0.623919 F F F
0.974233 0.232055 0.873964 F F F
0.224338 0.232149 0.123736 F F F
0.473890 0.232204 0.373164 F F F
0.727881 0.225058 0.624523 F F F
0.974603 0.732727 0.874135 F F F
0.224556 0.731956 0.123977 F F F
0.474925 0.232381 0.874703 F F F
0.724540 0.232152 0.124382 F F F
0.475887 0.729097 0.873020 F F F
0.724661 0.732453 0.123943 F F F
0.126096 0.017876 0.275463 F F F
0.375977 0.018135 0.525444 F F F
0.126461 0.518235 0.276253 F F F
0.126196 0.017903 0.775416 F F F
0.376130 0.017913 0.025380 F F F
0.626023 0.018071 0.275389 F F F
0.875938 0.017594 0.525175 F F F
0.128506 0.516254 0.776281 F F F
0.376493 0.518168 0.024900 F F F
0.867272 0.517566 0.522451 F F F
0.626137 0.017922 0.775437 F F F
0.876024 0.017830 0.025729 F F F
0.627082 0.518547 0.770858 F F F
0.876134 0.517499 0.027431 F F F
0.025569 0.982186 0.126095 F F F
0.275408 0.982039 0.376060 F F F
0.025756 0.481984 0.126362 F F F
0.025310 0.982091 0.625985 F F F
0.275624 0.981995 0.875984 F F F
0.525516 0.982171 0.125981 F F F
0.775526 0.982336 0.376039 F F F
0.022966 0.482474 0.625445 F F F
0.278448 0.481894 0.875622 F F F
0.525634 0.482146 0.119841 F F F
0.768407 0.478268 0.380371 F F F
0.525396 0.982165 0.626009 F F F
0.775503 0.981850 0.876079 F F F
0.776529 0.484347 0.879138 F F F
0.384774 0.374277 0.349849 F F F
0.635972 0.354202 0.625776 F F F
0.600368 0.632607 0.379721 F F F
0.349487 0.628725 0.636617 F F F
0.381041 0.365754 0.613879 F F F
0.645851 0.371062 0.361630 F F F
0.617019 0.629036 0.637385 F F F
0.365084 0.625812 0.395835 F F F
0.249793 0.249740 0.249869 F F F
0.497268 0.249865 0.498052 F F F
0.499838 0.250007 0.249070 F F F
0.247270 0.248000 0.498602 F F F
0.500168 0.500206 0.246280 F F F
0.247092 0.500410 0.500368 F F F
0.249851 0.500714 0.250135 F F F
0.489567 0.500031 0.496852 F F F
0.485771 0.624126 0.720402 F F F
0.727049 0.623447 0.479003 F F F
0.741419 0.375336 0.740661 F F F
0.471193 0.375680 0.486355 F F F
0.270525 0.625370 0.265905 F F F
0.512905 0.625283 0.508977 F F F
0.516262 0.375957 0.267705 F F F
0.258283 0.374704 0.514444 F F F
0.376447 0.481570 0.720558 F F F
0.481510 0.517443 0.370073 F F F
0.738344 0.530381 0.628610 F F F
0.515251 0.261258 0.625532 F F F
0.275425 0.267653 0.375629 F F F
0.625875 0.735978 0.272029 F F F
0.375739 0.732640 0.525374 F F F
0.374240 0.264314 0.728048 F F F
0.622373 0.270984 0.479003 F F F
0.473436 0.735044 0.373187 F F F
0.727800 0.734562 0.623825 F F F
0.625615 0.517881 0.276001 F F F
0.372864 0.513374 0.537563 F F F
0.278005 0.484505 0.376913 F F F
0.587767 0.487489 0.572384 T T T