Cs8 Pb8 Br23                            
   1.0000000000000000     
     8.4564889999999995    0.0000000000000000    8.0403009999999995
     0.0000000000000000   11.7298469999999995    0.0000000000000000
    -8.4564889999999995    0.0000000000000000    8.0403009999999995
   Cs   Pb   Br
     8     8    23
Direct
  0.2529309999999967  0.2380679999999984  0.1954739999999973
  0.7778139999999993  0.2454159999999987  0.7161199999999965
  0.7572359999999989  0.7618650000000002  0.2603569999999991
  0.1958860000000016  0.7492570000000001  0.7732430000000008
  0.2938430000000025  0.2496539999999996  0.7313309999999973
  0.7897409999999994  0.2468659999999971  0.2277169999999984
  0.7361530000000016  0.7524149999999992  0.8040510000000012
  0.2159979999999990  0.7530479999999997  0.2887089999999972
  0.9988150000000005  0.0005000000000024  0.9982990000000029
  0.4994689999999977  0.0037009999999995  0.4902739999999994
  0.4957410000000024  0.0011179999999982  0.9956740000000011
  0.0040109999999984  0.0002479999999991  0.5043110000000013
  0.5013399999999990  0.5036649999999980  0.9992459999999994
  0.0041659999999979  0.4957040000000035  0.5040630000000021
  0.9998140000000006  0.4985840000000010  0.0005799999999994
  0.5044040000000010  0.4893700000000010  0.5066139999999990
  0.4677239999999969  0.7509560000000022  0.9550709999999967
  0.9770340000000033  0.7478920000000002  0.4845860000000002
  0.9690859999999972  0.2497770000000017  0.9760050000000007
  0.4542610000000025  0.2447110000000023  0.4562659999999994
  0.0195849999999993  0.7496890000000036  0.0314290000000028
  0.5208539999999999  0.2543259999999989  0.0389640000000000
  0.0364629999999977  0.2481310000000008  0.5419940000000025
  0.2482960000000034  0.4696759999999998  0.9542289999999980
  0.7498810000000020  0.4578699999999998  0.4552660000000017
  0.9458169999999981  0.5294519999999991  0.7512309999999971
  0.5478209999999990  0.0342890000000011  0.7434480000000008
  0.0392870000000016  0.0239180000000019  0.2544370000000029
  0.7490689999999987  0.9765700000000024  0.0420879999999997
  0.2554930000000013  0.9590809999999976  0.5485919999999993
  0.2447319999999991  0.0297130000000010  0.9416859999999971
  0.7472429999999974  0.0309859999999986  0.4496019999999987
  0.4402029999999968  0.9689520000000016  0.2411839999999970
  0.9456699999999998  0.9687849999999969  0.7496920000000031
  0.7500870000000006  0.5294719999999984  0.0553460000000001
  0.2590479999999999  0.5351700000000008  0.5526750000000007
  0.5537089999999978  0.4717860000000016  0.7613709999999969
  0.0516270000000034  0.4698629999999966  0.2560860000000034
  0.5014320000000012  0.6593379999999982  0.3644979999999975

  0.00000000E+00  0.00000000E+00  0.00000000E+00
  0.00000000E+00  0.00000000E+00  0.00000000E+00
  0.00000000E+00  0.00000000E+00  0.00000000E+00
  0.00000000E+00  0.00000000E+00  0.00000000E+00
  0.00000000E+00  0.00000000E+00  0.00000000E+00
  0.00000000E+00  0.00000000E+00  0.00000000E+00
  0.00000000E+00  0.00000000E+00  0.00000000E+00
  0.00000000E+00  0.00000000E+00  0.00000000E+00
  0.00000000E+00  0.00000000E+00  0.00000000E+00
  0.00000000E+00  0.00000000E+00  0.00000000E+00
  0.00000000E+00  0.00000000E+00  0.00000000E+00
  0.00000000E+00  0.00000000E+00  0.00000000E+00
  0.00000000E+00  0.00000000E+00  0.00000000E+00
  0.00000000E+00  0.00000000E+00  0.00000000E+00
  0.00000000E+00  0.00000000E+00  0.00000000E+00
  0.00000000E+00  0.00000000E+00  0.00000000E+00
  0.00000000E+00  0.00000000E+00  0.00000000E+00
  0.00000000E+00  0.00000000E+00  0.00000000E+00
  0.00000000E+00  0.00000000E+00  0.00000000E+00
  0.00000000E+00  0.00000000E+00  0.00000000E+00
  0.00000000E+00  0.00000000E+00  0.00000000E+00
  0.00000000E+00  0.00000000E+00  0.00000000E+00
  0.00000000E+00  0.00000000E+00  0.00000000E+00
  0.00000000E+00  0.00000000E+00  0.00000000E+00
  0.00000000E+00  0.00000000E+00  0.00000000E+00
  0.00000000E+00  0.00000000E+00  0.00000000E+00
  0.00000000E+00  0.00000000E+00  0.00000000E+00
  0.00000000E+00  0.00000000E+00  0.00000000E+00
  0.00000000E+00  0.00000000E+00  0.00000000E+00
  0.00000000E+00  0.00000000E+00  0.00000000E+00
  0.00000000E+00  0.00000000E+00  0.00000000E+00
  0.00000000E+00  0.00000000E+00  0.00000000E+00
  0.00000000E+00  0.00000000E+00  0.00000000E+00
  0.00000000E+00  0.00000000E+00  0.00000000E+00
  0.00000000E+00  0.00000000E+00  0.00000000E+00
  0.00000000E+00  0.00000000E+00  0.00000000E+00
  0.00000000E+00  0.00000000E+00  0.00000000E+00
  0.00000000E+00  0.00000000E+00  0.00000000E+00
  0.00000000E+00  0.00000000E+00  0.00000000E+00
