Cs8 Pb8 Br23
1.0
8.456489 0.000000 8.040301
0.000000 11.729847 0.000000
-8.456489 0.000000 8.040301
Cs Pb Br
8 8 23
direct
0.252931 0.238068 0.195474 Cs
0.777814 0.245416 0.716120 Cs
0.757236 0.761865 0.260357 Cs
0.195886 0.749257 0.773243 Cs
0.293843 0.249654 0.731331 Cs
0.789741 0.246866 0.227717 Cs
0.736153 0.752415 0.804051 Cs
0.215998 0.753048 0.288709 Cs
-0.001185 0.000500 -0.001701 Pb
0.499469 0.003701 0.490274 Pb
0.495741 0.001118 -0.004326 Pb
0.004011 0.000248 0.504311 Pb
0.501340 0.503665 -0.000754 Pb
0.004166 0.495704 0.504063 Pb
-0.000186 0.498584 0.000580 Pb
0.504404 0.489370 0.506614 Pb
0.467724 0.750956 0.955071 Br
0.977034 0.747892 0.484586 Br
0.969086 0.249777 0.976005 Br
0.454261 0.244711 0.456266 Br
0.019585 0.749689 0.031429 Br
0.520854 0.254326 0.038964 Br
0.036463 0.248131 0.541994 Br
0.248296 0.469676 0.954229 Br
0.749881 0.457870 0.455266 Br
0.945817 0.529452 0.751231 Br
0.547821 0.034289 0.743448 Br
0.039287 0.023918 0.254437 Br
0.749069 0.976570 0.042088 Br
0.255493 0.959081 0.548592 Br
0.244732 0.029713 0.941686 Br
0.747243 0.030986 0.449602 Br
0.440203 0.968952 0.241184 Br
0.945670 0.968785 0.749692 Br
0.750087 0.529472 0.055346 Br
0.259048 0.535170 0.552675 Br
0.553709 0.471786 0.761371 Br
0.051627 0.469863 0.256086 Br
0.501432 0.659338 0.364498 Br
