Cs64 Pb64 Br191
1.0
16.840035 0.000000 16.155961
0.000000 23.527616 0.000000
-16.840035 0.000000 16.155961
Cs Pb Br Cs Pb Br
56 56 168 8 8 23
Selective dynamics
direct
0.886138 0.874966 0.353806 F F F
0.136268 0.875095 0.603891 F F F
0.887128 0.375836 0.352730 F F F
0.136877 0.375980 0.606790 F F F
0.886647 0.874994 0.854245 F F F
0.136177 0.875068 0.103775 F F F
0.385838 0.874818 0.354011 F F F
0.636082 0.875012 0.603591 F F F
0.885932 0.375260 0.853648 F F F
0.136075 0.375267 0.103653 F F F
0.386131 0.875015 0.854183 F F F
0.636193 0.875159 0.104029 F F F
0.386729 0.375292 0.853702 F F F
0.636300 0.375253 0.103095 F F F
0.103847 0.124107 0.385663 F F F
0.352847 0.123948 0.638909 F F F
0.103785 0.625282 0.386059 F F F
0.104114 0.125080 0.886170 F F F
0.354740 0.124995 0.136310 F F F
0.601669 0.117076 0.379585 F F F
0.854406 0.123250 0.639292 F F F
0.104070 0.625249 0.886284 F F F
0.353720 0.625225 0.135870 F F F
0.854605 0.625767 0.636131 F F F
0.604296 0.125078 0.886604 F F F
0.853992 0.124972 0.136414 F F F
0.604066 0.625103 0.886147 F F F
0.854251 0.625358 0.136134 F F F
0.896562 0.874982 0.114092 F F F
0.146598 0.875029 0.364193 F F F
0.896325 0.375130 0.113979 F F F
0.146693 0.376278 0.362933 F F F
0.896506 0.875134 0.614178 F F F
0.146560 0.875022 0.864319 F F F
0.396242 0.874843 0.113880 F F F
0.646903 0.874461 0.363712 F F F
0.896299 0.376375 0.614711 F F F
0.146238 0.375263 0.864223 F F F
0.396079 0.374950 0.114223 F F F
0.396259 0.875088 0.614391 F F F
0.646435 0.875034 0.864426 F F F
0.646815 0.375370 0.864697 F F F
0.114244 0.125052 0.146333 F F F
0.364103 0.124926 0.392644 F F F
0.114145 0.625224 0.146222 F F F
0.114250 0.124788 0.647003 F F F
0.364174 0.125028 0.896915 F F F
0.614217 0.124804 0.146236 F F F
0.863865 0.124331 0.394653 F F F
0.114295 0.625250 0.646259 F F F
0.364179 0.625348 0.896614 F F F
0.614212 0.625335 0.146117 F F F
0.864566 0.625264 0.396447 F F F
0.615024 0.123612 0.650505 F F F
0.864276 0.124861 0.896761 F F F
0.864760 0.625476 0.898092 F F F
0.750246 0.750014 0.249971 F F F
0.000135 0.750435 0.500094 F F F
0.750055 0.250612 0.250002 F F F
0.003367 0.250804 0.499783 F F F
0.750226 0.750739 0.750214 F F F
0.000171 0.750351 0.000130 F F F
0.250037 0.750141 0.250003 F F F
0.500030 0.750411 0.500062 F F F
0.750509 0.249818 0.750822 F F F
0.000122 0.250351 0.000088 F F F
0.250068 0.750356 0.750173 F F F
0.500109 0.750294 0.000116 F F F
0.250282 0.250294 0.750519 F F F
0.500111 0.250267 0.000160 F F F
0.000209 0.750378 0.250076 F F F
0.250132 0.750395 0.500129 F F F
0.000355 0.250294 0.249993 F F F
0.000202 0.750277 0.750223 F F F
0.250104 0.750373 0.000126 F F F
0.500013 0.749933 0.249949 F F F
0.750194 0.750582 0.500134 F F F
0.000206 0.250154 0.750435 F F F
0.250085 0.250397 0.000137 F F F
0.755672 0.249609 0.502296 F F F
0.500101 0.750697 0.750373 F F F
0.750154 0.750447 0.000141 F F F
0.500017 0.250336 0.750420 F F F
0.750282 0.250106 0.000247 F F F
0.000323 0.999932 0.249962 F F F
0.250298 0.000482 0.500062 F F F
0.000217 0.500480 0.249923 F F F
0.000366 0.999797 0.750324 F F F
0.250035 0.000301 0.000119 F F F
0.499453 0.998824 0.249470 F F F
0.750026 0.000688 0.500005 F F F
0.000357 0.500613 0.750331 F F F
0.250085 0.500354 0.000114 F F F
0.750182 0.500855 0.500447 F F F
0.500055 0.000077 0.750338 F F F
0.750224 0.000023 0.000178 F F F
0.499934 0.501380 0.751596 F F F
0.750228 0.500585 0.000221 F F F
0.750773 0.999578 0.249675 F F F
0.000162 0.000322 0.500107 F F F
0.750470 0.500785 0.249764 F F F
0.000279 0.500423 0.500141 F F F
0.750164 0.999555 0.750384 F F F
0.000174 0.000364 0.000125 F F F
0.249843 0.999945 0.249897 F F F
0.500218 0.000250 0.500421 F F F
0.752153 0.502603 0.751316 F F F
0.000172 0.500335 0.000106 F F F
0.250047 -0.000017 0.750415 F F F
0.500039 0.000209 -0.000014 F F F
0.250136 0.500728 0.750563 F F F
0.500220 0.500360 0.000579 F F F
0.984644 0.125431 0.231625 F F F
0.235526 0.126224 0.479504 F F F
0.984660 0.625319 0.231262 F F F
0.234466 0.625122 0.481056 F F F
0.985078 0.125196 0.731573 F F F
0.234497 0.125534 0.981212 F F F
0.485916 0.125088 0.233413 F F F
0.730981 0.127249 0.477452 F F F
0.984886 0.625375 0.730855 F F F
0.234629 0.625367 0.981207 F F F
0.484372 0.624909 0.230592 F F F
0.484054 0.125934 0.730898 F F F
0.734608 0.125373 0.981518 F F F
0.734266 0.625423 0.981405 F F F
0.231087 0.875260 0.234479 F F F
0.480904 0.876275 0.484891 F F F
0.231229 0.375430 0.233786 F F F
0.231050 0.875528 0.734322 F F F
0.481225 0.875430 0.984466 F F F
0.732122 0.875075 0.234113 F F F
0.980891 0.875829 0.484510 F F F
0.232129 0.375394 0.735354 F F F
0.481236 0.375192 0.984751 F F F
0.731058 0.375546 0.233352 F F F
0.980248 0.374659 0.484487 F F F
0.730277 0.875636 0.733965 F F F
0.981353 0.875446 0.984656 F F F
0.980868 0.375315 0.984363 F F F
0.767597 0.125611 0.266175 F F F
0.019825 0.126206 0.516210 F F F
0.770085 0.625128 0.266343 F F F
0.018943 0.625167 0.515861 F F F
0.768221 0.125343 0.766748 F F F
0.019589 0.125528 0.015923 F F F
0.268646 0.125507 0.264898 F F F
0.527669 0.126565 0.515513 F F F
0.771511 0.626443 0.767151 F F F
0.019363 0.625336 0.015901 F F F
0.268833 0.125495 0.767309 F F F
0.519547 0.125483 0.016155 F F F
0.269650 0.625539 0.766245 F F F
0.519630 0.625293 0.015972 F F F
0.016190 0.875375 0.269883 F F F
0.266419 0.875845 0.519158 F F F
0.016509 0.375302 0.269062 F F F
0.016377 0.875280 0.769623 F F F
0.266025 0.875487 0.019373 F F F
0.515740 0.874694 0.270016 F F F
0.766083 0.876304 0.518974 F F F
0.015669 0.375219 0.768798 F F F
0.266061 0.375346 0.019500 F F F
0.759296 0.374164 0.524485 F F F
0.516118 0.875934 0.769733 F F F
0.766113 0.875418 0.019831 F F F
0.517555 0.375795 0.767080 F F F
0.766090 0.375275 0.018482 F F F
0.874485 0.982180 0.224508 F F F
0.124267 0.982442 0.474677 F F F
0.874094 0.482099 0.224616 F F F
0.124051 0.481739 0.474803 F F F
0.874037 0.982109 0.724661 F F F
0.124145 0.982211 0.974602 F F F
0.373990 0.982081 0.224342 F F F
0.624130 0.981587 0.474082 F F F
0.874715 0.483080 0.724089 F F F
0.124128 0.482172 0.974657 F F F
0.374293 0.481986 0.224759 F F F
0.374174 0.982217 0.724606 F F F
0.624128 0.982210 0.974726 F F F
0.624198 0.482239 0.974611 F F F
0.974691 0.018076 0.374207 F F F
0.224811 0.018280 0.623978 F F F
0.974623 0.517896 0.374179 F F F
0.224859 0.518010 0.624060 F F F
0.974669 0.017998 0.874048 F F F
0.224683 0.018029 0.124094 F F F
0.474391 0.017461 0.374158 F F F
0.724937 0.018303 0.623855 F F F
0.974574 0.518036 0.873995 F F F
0.224634 0.518091 0.124171 F F F
0.474632 0.018204 0.873927 F F F
0.724838 0.018075 0.124046 F F F
0.474578 0.518036 0.874879 F F F
0.724612 0.518136 0.124465 F F F
0.025695 0.768053 0.126231 F F F
0.275620 0.767917 0.376240 F F F
0.025627 0.267971 0.126405 F F F
0.025651 0.768100 0.626068 F F F
0.275658 0.768081 0.876108 F F F
0.525681 0.768091 0.126273 F F F
0.775661 0.767955 0.376273 F F F
0.025541 0.268244 0.625678 F F F
0.275955 0.268177 0.875977 F F F
0.526028 0.267750 0.126780 F F F
0.774034 0.271674 0.377731 F F F
0.525611 0.768020 0.626082 F F F
0.775676 0.768366 0.876139 F F F
0.775918 0.267377 0.876082 F F F
0.126219 0.232531 0.276350 F F F
0.380024 0.231166 0.526941 F F F
0.126208 0.732154 0.275663 F F F
0.126381 0.232402 0.775363 F F F
0.376281 0.232198 0.025750 F F F
0.626453 0.233878 0.279991 F F F
0.872867 0.231878 0.526291 F F F
0.126199 0.732150 0.775569 F F F
0.376207 0.732241 0.025602 F F F
0.876079 0.732428 0.525527 F F F
0.626279 0.233169 0.776322 F F F
0.876089 0.232076 0.025757 F F F
0.626206 0.732125 0.775681 F F F
0.876155 0.732297 0.025704 F F F
0.874125 0.767984 0.224644 F F F
0.124143 0.768053 0.474668 F F F
0.873951 0.268012 0.225137 F F F
0.125139 0.268393 0.474783 F F F
0.874074 0.768353 0.724568 F F F
0.124132 0.768008 0.974636 F F F
0.374177 0.768017 0.224640 F F F
0.624083 0.768060 0.474598 F F F
0.874021 0.266640 0.723172 F F F
0.124110 0.268077 0.974649 F F F
0.374681 0.268292 0.226675 F F F
0.374175 0.768131 0.724628 F F F
0.624126 0.768033 0.974679 F F F
0.624147 0.267987 0.974716 F F F
0.975034 0.232093 0.375094 F F F
0.225012 0.231824 0.623542 F F F
0.974706 0.732252 0.374199 F F F
0.224775 0.732191 0.624038 F F F
0.974529 0.232252 0.873869 F F F
0.225012 0.232239 0.124448 F F F
0.479284 0.231720 0.376656 F F F
0.722004 0.232724 0.623118 F F F
0.974751 0.732235 0.874050 F F F
0.224668 0.732178 0.124140 F F F
0.474722 0.232467 0.873758 F F F
0.724622 0.232273 0.125063 F F F
0.474703 0.732328 0.874103 F F F
0.724715 0.732120 0.124200 F F F
0.126289 0.017882 0.275614 F F F
0.376603 0.021342 0.525083 F F F
0.126237 0.518068 0.275732 F F F
0.126205 0.017974 0.775656 F F F
0.376220 0.018099 0.025635 F F F
0.626232 0.014006 0.272060 F F F
0.875950 0.020764 0.525061 F F F
0.126386 0.518026 0.775706 F F F
0.376275 0.517965 0.025762 F F F
0.876039 0.517456 0.525935 F F F
0.626143 0.017923 0.776010 F F F
0.876168 0.018100 0.025695 F F F
0.626844 0.517619 0.774570 F F F
0.876162 0.518058 0.025963 F F F
0.025742 0.982217 0.126249 F F F
0.275850 0.982428 0.376186 F F F
0.025635 0.482195 0.126190 F F F
0.025559 0.982200 0.626047 F F F
0.275726 0.982113 0.876049 F F F
0.525305 0.982096 0.126059 F F F
0.775491 0.982299 0.376170 F F F
0.025584 0.482157 0.626043 F F F
0.275783 0.482120 0.876152 F F F
0.525905 0.481888 0.126494 F F F
0.775325 0.481487 0.376662 F F F
0.525729 0.982234 0.626060 F F F
0.775779 0.981976 0.875976 F F F
0.776857 0.483834 0.876584 F F F
0.387223 0.375889 0.354384 F F F
0.636283 0.385000 0.619294 F F F
0.604223 0.625542 0.385945 F F F
0.354137 0.625242 0.636497 F F F
0.397328 0.378365 0.614697 F F F
0.647049 0.380214 0.361028 F F F
0.613669 0.626442 0.647166 F F F
0.364002 0.625298 0.396236 F F F
0.249916 0.250568 0.249873 F F F
0.495431 0.248098 0.503596 F F F
0.500583 0.250538 0.250161 F F F
0.249208 0.250648 0.499842 F F F
0.499879 0.500539 0.249739 F F F
0.249893 0.500441 0.500015 F F F
0.250127 0.500543 0.249990 F F F
0.500006 0.501062 0.499828 F F F
0.484071 0.625940 0.732661 F F F
0.734805 0.625013 0.480924 F F F
0.737298 0.376080 0.739264 F F F
0.485527 0.373653 0.484998 F F F
0.269728 0.625250 0.265997 F F F
0.520130 0.625355 0.515649 F F F
0.516579 0.375258 0.270164 F F F
0.266535 0.374707 0.520801 F F F
0.374560 0.482713 0.725941 F F F
0.474716 0.518089 0.374244 F F F
0.725541 0.520789 0.624740 F F F
0.529979 0.269602 0.625919 F F F
0.276498 0.268797 0.376825 F F F
0.626197 0.732137 0.275519 F F F
0.376276 0.732097 0.525646 F F F
0.374559 0.268800 0.723179 F F F
0.474695 0.732112 0.374252 F F F
0.724795 0.732280 0.624014 F F F
0.626268 0.518109 0.275898 F F F
0.376117 0.517936 0.525402 F F F
0.522597 0.486585 0.626466 F F F
0.275760 0.481876 0.376242 F F F
0.624106 0.481189 0.476754 T T T