Cs8 Pb8 Br23                            
   1.0000000000000000     
     8.4564889999999995    0.0000000000000000    8.0403009999999995
     0.0000000000000000   11.7298469999999995    0.0000000000000000
    -8.4564889999999995    0.0000000000000000    8.0403009999999995
   Cs   Pb   Br
     8     8    23
Direct
  0.2647180000000020  0.2555789999999973  0.2088159999999988
  0.7695099999999968  0.2381269999999986  0.7487500000000011
  0.7066280000000020  0.7712440000000029  0.2325170000000014
  0.2130849999999995  0.7487709999999979  0.7776190000000014
  0.3014409999999970  0.2678060000000002  0.7411060000000020
  0.7908150000000020  0.2436000000000007  0.2115480000000005
  0.7361009999999979  0.7501699999999971  0.8071399999999969
  0.2316659999999970  0.7436349999999976  0.2778339999999986
  0.0055049999999994  0.0011640000000028  0.9979820000000004
  0.5015530000000012  0.0082469999999972  0.4932950000000034
  0.4941480000000027  0.0038970000000020  0.9943450000000027
  0.0067790000000016  0.0315489999999983  0.5044710000000023
  0.5009439999999969  0.5022519999999986  0.0011250000000018
  0.9566640000000035  0.4990650000000016  0.5022220000000033
  0.0000599999999977  0.5012910000000019  0.0067779999999971
  0.5161990000000003  0.5029759999999968  0.5016219999999976
  0.4765349999999984  0.7528590000000008  0.9681259999999980
  0.9916559999999990  0.2514740000000018  0.9751559999999984
  0.4515170000000026  0.2424589999999966  0.4722780000000029
  0.0185559999999967  0.7518809999999974  0.0336100000000030
  0.5199849999999984  0.2522430000000000  0.0332420000000013
  0.0510579999999976  0.2712140000000005  0.5412499999999980
  0.2482329999999990  0.4820920000000015  0.9607409999999987
  0.7479930000000010  0.3880460000000028  0.4715070000000026
  0.4672520000000020  0.5420799999999986  0.2500089999999986
  0.9511919999999989  0.5318889999999996  0.7470199999999991
  0.5415530000000004  0.0278810000000007  0.7463830000000016
  0.0463980000000035  0.0284759999999977  0.2536739999999966
  0.7542890000000000  0.9913680000000014  0.0245069999999998
  0.2472169999999991  0.9532799999999995  0.5386749999999978
  0.2490140000000025  0.0305320000000009  0.9371160000000032
  0.7500069999999965  0.0319420000000008  0.4450950000000020
  0.4471210000000028  0.9666210000000035  0.2445980000000034
  0.9562689999999989  0.9626149999999996  0.7429699999999997
  0.7527580000000000  0.5235240000000019  0.0518080000000012
  0.2710349999999977  0.5592740000000020  0.5395370000000028
  0.5562600000000018  0.4681819999999988  0.7535850000000011
  0.0399349999999998  0.4717430000000036  0.2571870000000018
  0.7092099999999988  0.6989540000000005  0.5089219999999983

  0.00000000E+00  0.00000000E+00  0.00000000E+00
  0.00000000E+00  0.00000000E+00  0.00000000E+00
  0.00000000E+00  0.00000000E+00  0.00000000E+00
  0.00000000E+00  0.00000000E+00  0.00000000E+00
  0.00000000E+00  0.00000000E+00  0.00000000E+00
  0.00000000E+00  0.00000000E+00  0.00000000E+00
  0.00000000E+00  0.00000000E+00  0.00000000E+00
  0.00000000E+00  0.00000000E+00  0.00000000E+00
  0.00000000E+00  0.00000000E+00  0.00000000E+00
  0.00000000E+00  0.00000000E+00  0.00000000E+00
  0.00000000E+00  0.00000000E+00  0.00000000E+00
  0.00000000E+00  0.00000000E+00  0.00000000E+00
  0.00000000E+00  0.00000000E+00  0.00000000E+00
  0.00000000E+00  0.00000000E+00  0.00000000E+00
  0.00000000E+00  0.00000000E+00  0.00000000E+00
  0.00000000E+00  0.00000000E+00  0.00000000E+00
  0.00000000E+00  0.00000000E+00  0.00000000E+00
  0.00000000E+00  0.00000000E+00  0.00000000E+00
  0.00000000E+00  0.00000000E+00  0.00000000E+00
  0.00000000E+00  0.00000000E+00  0.00000000E+00
  0.00000000E+00  0.00000000E+00  0.00000000E+00
  0.00000000E+00  0.00000000E+00  0.00000000E+00
  0.00000000E+00  0.00000000E+00  0.00000000E+00
  0.00000000E+00  0.00000000E+00  0.00000000E+00
  0.00000000E+00  0.00000000E+00  0.00000000E+00
  0.00000000E+00  0.00000000E+00  0.00000000E+00
  0.00000000E+00  0.00000000E+00  0.00000000E+00
  0.00000000E+00  0.00000000E+00  0.00000000E+00
  0.00000000E+00  0.00000000E+00  0.00000000E+00
  0.00000000E+00  0.00000000E+00  0.00000000E+00
  0.00000000E+00  0.00000000E+00  0.00000000E+00
  0.00000000E+00  0.00000000E+00  0.00000000E+00
  0.00000000E+00  0.00000000E+00  0.00000000E+00
  0.00000000E+00  0.00000000E+00  0.00000000E+00
  0.00000000E+00  0.00000000E+00  0.00000000E+00
  0.00000000E+00  0.00000000E+00  0.00000000E+00
  0.00000000E+00  0.00000000E+00  0.00000000E+00
  0.00000000E+00  0.00000000E+00  0.00000000E+00
  0.00000000E+00  0.00000000E+00  0.00000000E+00
