Cs8 Pb8 Br23
1.0
8.456489 0.000000 8.040301
0.000000 11.729847 0.000000
-8.456489 0.000000 8.040301
Cs Pb Br
8 8 23
direct
0.264718 0.255579 0.208816 Cs
0.769510 0.238127 0.748750 Cs
0.706628 0.771244 0.232517 Cs
0.213085 0.748771 0.777619 Cs
0.301441 0.267806 0.741106 Cs
0.790815 0.243600 0.211548 Cs
0.736101 0.750170 0.807140 Cs
0.231666 0.743635 0.277834 Cs
0.005505 0.001164 -0.002018 Pb
0.501553 0.008247 0.493295 Pb
0.494148 0.003897 -0.005655 Pb
0.006779 0.031549 0.504471 Pb
0.500944 0.502252 0.001125 Pb
-0.043336 0.499065 0.502222 Pb
0.000060 0.501291 0.006778 Pb
0.516199 0.502976 0.501622 Pb
0.476535 0.752859 0.968126 Br
0.991656 0.251474 0.975156 Br
0.451517 0.242459 0.472278 Br
0.018556 0.751881 0.033610 Br
0.519985 0.252243 0.033242 Br
0.051058 0.271214 0.541250 Br
0.248233 0.482092 0.960741 Br
0.747993 0.388046 0.471507 Br
0.467252 0.542080 0.250009 Br
0.951192 0.531889 0.747020 Br
0.541553 0.027881 0.746383 Br
0.046398 0.028476 0.253674 Br
0.754289 0.991368 0.024507 Br
0.247217 0.953280 0.538675 Br
0.249014 0.030532 0.937116 Br
0.750007 0.031942 0.445095 Br
0.447121 0.966621 0.244598 Br
0.956269 0.962615 0.742970 Br
0.752758 0.523524 0.051808 Br
0.271035 0.559274 0.539537 Br
0.556260 0.468182 0.753585 Br
0.039935 0.471743 0.257187 Br
0.709210 0.698954 0.508922 Br
