Cs64 Pb64 Br191
1.0
16.840035 0.000000 16.155961
0.000000 23.527616 0.000000
-16.840035 0.000000 16.155961
Cs Pb Br Cs Pb Br
56 56 168 8 8 23
direct
0.885305 0.873716 0.354066 Cs
0.136200 0.873795 0.603736 Cs
0.885903 0.375109 0.352874 Cs
0.137220 0.375187 0.603900 Cs
0.886162 0.875683 0.853665 Cs
0.136281 0.875232 0.103531 Cs
0.385659 0.874960 0.354288 Cs
0.637122 0.879936 0.614505 Cs
0.886660 0.374779 0.853964 Cs
0.136135 0.374880 0.103475 Cs
0.386512 0.875204 0.853323 Cs
0.636046 0.875054 0.103349 Cs
0.386100 0.374945 0.853058 Cs
0.636137 0.375037 0.103997 Cs
0.103702 0.124845 0.386237 Cs
0.353782 0.124969 0.635776 Cs
0.104132 0.624965 0.388443 Cs
0.103752 0.125024 0.886552 Cs
0.352738 0.124995 0.135812 Cs
0.603134 0.124987 0.386196 Cs
0.854344 0.125016 0.636229 Cs
0.103816 0.625046 0.885842 Cs
0.355336 0.625006 0.136056 Cs
0.860527 0.626445 0.639733 Cs
0.603530 0.124914 0.885830 Cs
0.856407 0.125092 0.136035 Cs
0.603382 0.625058 0.888788 Cs
0.853152 0.624907 0.137488 Cs
0.895956 0.874666 0.114403 Cs
0.146399 0.872712 0.366137 Cs
0.896607 0.374900 0.114063 Cs
0.146664 0.375369 0.364466 Cs
0.899953 0.874859 0.616787 Cs
0.146809 0.875229 0.864016 Cs
0.396461 0.875062 0.114046 Cs
0.646160 0.882214 0.356538 Cs
0.899698 0.374959 0.616073 Cs
0.146770 0.374886 0.864151 Cs
0.395696 0.374364 0.113420 Cs
0.396404 0.873392 0.614326 Cs
0.646302 0.875369 0.865026 Cs
0.646011 0.374952 0.864167 Cs
0.114116 0.124954 0.146433 Cs
0.364189 0.124889 0.396629 Cs
0.113938 0.625016 0.146810 Cs
0.114164 0.124907 0.646094 Cs
0.364035 0.125043 0.896735 Cs
0.613338 0.125173 0.145465 Cs
0.866247 0.124863 0.397632 Cs
0.114919 0.625194 0.646360 Cs
0.363945 0.625115 0.896582 Cs
0.614294 0.624839 0.142924 Cs
0.867304 0.625242 0.389666 Cs
0.613141 0.125331 0.645828 Cs
0.864487 0.125169 0.897256 Cs
0.864138 0.624907 0.896926 Cs
0.750107 0.751024 0.249020 Pb
-0.000448 0.749232 0.500007 Pb
0.750628 0.248438 0.249588 Pb
0.000341 0.250200 0.500082 Pb
0.750574 0.750073 0.751945 Pb
0.000172 0.750121 0.000112 Pb
0.249546 0.750100 0.249612 Pb
0.510908 0.746735 0.500728 Pb
0.750178 0.250360 0.750411 Pb
0.000186 0.250166 0.000099 Pb
0.250309 0.750164 0.750436 Pb
0.499755 0.750420 0.999934 Pb
0.250167 0.249740 0.750163 Pb
0.499937 0.250096 0.000001 Pb
0.001003 0.750124 0.249892 Pb
0.254109 0.748953 0.500430 Pb
0.000391 0.249971 0.250137 Pb
0.000652 0.750418 0.750963 Pb
0.250000 0.750252 0.000010 Pb
0.499408 0.750742 0.249604 Pb
0.744790 0.755989 0.501240 Pb
0.000297 0.249638 0.750256 Pb
0.250032 0.250092 0.000010 Pb
0.750093 0.248562 0.500038 Pb
0.500178 0.750159 0.750321 Pb
0.750430 0.750050 0.000227 Pb
0.499890 0.250195 0.750204 Pb
0.750067 0.249900 0.000060 Pb
0.000460 -0.000378 0.250281 Pb
0.250253 0.999659 0.500151 Pb
0.001041 0.499785 0.249969 Pb
0.000320 0.000470 0.750248 Pb
0.250074 0.000018 0.000026 Pb
0.499392 0.000605 0.249549 Pb
0.749935 0.000398 0.500003 Pb
0.000640 0.499482 0.750630 Pb
0.249917 0.500237 0.999938 Pb
0.750665 0.495549 0.500729 Pb
0.499615 0.000507 0.750196 Pb
0.750176 0.000503 0.000129 Pb
0.500080 0.500677 0.750266 Pb
0.750351 0.499621 0.999733 Pb
0.751016 0.001177 0.249289 Pb
0.000290 0.999444 0.500075 Pb
0.750708 0.498146 0.247842 Pb
0.000622 0.499749 0.500072 Pb
0.750727 0.001559 0.750995 Pb
0.000164 -0.000120 0.000125 Pb
0.249820 -0.000028 0.250134 Pb
0.499414 0.996733 0.499445 Pb
0.750218 0.499713 0.750381 Pb
0.000209 0.500245 0.000094 Pb
0.250102 0.000109 0.750103 Pb
0.499905 0.000204 0.000097 Pb
0.250173 0.499802 0.750256 Pb
0.499568 0.499511 0.999762 Pb
0.985364 0.124754 0.231979 Br
0.234768 0.124774 0.481126 Br
0.983443 0.624802 0.232154 Br
0.235607 0.624518 0.480583 Br
0.984559 0.125057 0.730158 Br
0.234506 0.125093 0.981014 Br
0.483209 0.124816 0.229850 Br
0.735792 0.124913 0.482269 Br
0.987738 0.624968 0.733767 Br
0.234416 0.625252 0.980648 Br
0.488862 0.624145 0.231365 Br
0.484330 0.125588 0.730761 Br
0.734053 0.125194 0.980258 Br
0.734356 0.624917 0.981801 Br
0.229551 0.874853 0.235323 Br
0.477803 0.874052 0.485688 Br
0.230103 0.374908 0.234525 Br
0.231055 0.874925 0.734181 Br
0.480746 0.875123 0.984219 Br
0.735154 0.875452 0.231129 Br
0.980236 0.874059 0.484657 Br
0.231201 0.374868 0.734621 Br
0.480191 0.374938 0.983678 Br
0.734305 0.373616 0.233048 Br
0.979213 0.375091 0.484117 Br
0.735585 0.875602 0.739208 Br
0.980110 0.875034 0.984765 Br
0.980777 0.375240 0.984721 Br
0.773522 0.124543 0.266819 Br
0.017930 0.124738 0.515640 Br
0.761307 0.624408 0.267334 Br
0.018234 0.624417 0.517327 Br
0.771007 0.126028 0.766245 Br
0.018865 0.125091 0.016088 Br
0.269518 0.124878 0.266129 Br
0.516681 0.127442 0.514350 Br
0.769602 0.625098 0.764955 Br
0.019984 0.625187 0.015795 Br
0.270267 0.124883 0.765785 Br
0.519190 0.125158 0.015225 Br
0.268161 0.624932 0.766796 Br
0.517295 0.624898 0.016242 Br
0.015545 0.874583 0.271498 Br
0.266122 0.874269 0.519361 Br
0.016097 0.374959 0.270209 Br
0.015803 0.875269 0.769329 Br
0.265945 0.875128 0.019755 Br
0.513592 0.875171 0.268638 Br
0.769734 0.870689 0.522240 Br
0.015943 0.374732 0.769395 Br
0.265381 0.375204 0.019113 Br
0.767853 0.379373 0.520327 Br
0.516989 0.875516 0.767779 Br
0.765633 0.875102 0.018917 Br
0.516158 0.375736 0.767706 Br
0.765858 0.375028 0.019869 Br
0.874229 0.982118 0.224636 Br
0.123702 0.981857 0.474781 Br
0.874916 0.482480 0.224671 Br
0.125069 0.482931 0.476397 Br
0.874161 0.982639 0.724510 Br
0.123908 0.982044 0.974596 Br
0.374012 0.982028 0.224567 Br
0.624578 0.984252 0.473768 Br
0.873806 0.482444 0.724643 Br
0.123818 0.482096 0.974480 Br
0.373472 0.481577 0.224308 Br
0.374150 0.981835 0.724385 Br
0.624028 0.982315 0.974911 Br
0.624011 0.482091 0.975224 Br
0.974574 0.017444 0.374177 Br
0.224664 0.017832 0.623938 Br
0.975349 0.517652 0.374215 Br
0.225279 0.517924 0.623855 Br
0.974627 0.018025 0.873927 Br
0.224544 0.017872 0.124045 Br
0.474732 0.017647 0.373854 Br
0.724817 0.018149 0.623681 Br
0.974476 0.517740 0.874025 Br
0.224524 0.517971 0.124044 Br
0.474598 0.017949 0.873919 Br
0.725263 0.019100 0.124298 Br
0.474507 0.518013 0.873645 Br
0.725075 0.517922 0.123616 Br
0.025819 0.768118 0.126400 Br
0.275582 0.767602 0.376123 Br
0.025467 0.267917 0.126255 Br
0.023352 0.767101 0.626206 Br
0.275792 0.768258 0.876255 Br
0.525275 0.768020 0.125894 Br
0.770527 0.766883 0.376797 Br
0.025838 0.268190 0.626071 Br
0.275653 0.267920 0.876117 Br
0.525501 0.268205 0.126254 Br
0.775563 0.267705 0.376749 Br
0.528998 0.767665 0.626702 Br
0.777486 0.766983 0.876349 Br
0.775467 0.268249 0.876016 Br
0.126222 0.232036 0.275799 Br
0.376497 0.233288 0.525560 Br
0.126331 0.730866 0.276631 Br
0.126175 0.231875 0.775564 Br
0.376211 0.232103 0.025594 Br
0.626371 0.231355 0.275085 Br
0.875600 0.233194 0.526377 Br
0.126370 0.732547 0.775313 Br
0.376126 0.732300 0.025630 Br
0.870448 0.726995 0.519560 Br
0.626283 0.231994 0.775302 Br
0.876075 0.232240 0.025432 Br
0.626673 0.733755 0.779767 Br
0.876116 0.731488 0.026435 Br
0.874470 0.766267 0.225829 Br
0.123877 0.764641 0.478156 Br
0.874131 0.267791 0.224622 Br
0.123796 0.268111 0.474768 Br
0.873984 0.767160 0.725209 Br
0.123821 0.768149 0.974505 Br
0.373711 0.767640 0.225114 Br
0.624576 0.796306 0.479884 Br
0.873934 0.268056 0.724633 Br
0.123913 0.267909 0.974586 Br
0.374050 0.268016 0.224787 Br
0.374558 0.767775 0.725116 Br
0.624123 0.767724 0.975035 Br
0.623983 0.268040 0.974795 Br
0.974652 0.232389 0.374148 Br
0.224633 0.232049 0.623894 Br
0.975662 0.732088 0.374099 Br
0.226591 0.731740 0.624057 Br
0.974660 0.232098 0.873885 Br
0.224584 0.232123 0.124042 Br
0.474647 0.232482 0.374230 Br
0.724557 0.232376 0.623485 Br
0.974454 0.732183 0.874252 Br
0.224520 0.732097 0.124001 Br
0.474654 0.232231 0.873851 Br
0.724815 0.231532 0.124200 Br
0.474542 0.732196 0.873808 Br
0.724836 0.731935 0.123955 Br
0.126231 0.017801 0.275820 Br
0.376324 0.017656 0.525268 Br
0.126446 0.518858 0.276641 Br
0.126283 0.018169 0.775649 Br
0.376202 0.017949 0.025626 Br
0.626425 0.020333 0.273456 Br
0.875553 0.016622 0.526369 Br
0.126224 0.517473 0.775513 Br
0.376056 0.517837 0.025434 Br
0.874515 0.523110 0.522981 Br
0.626475 0.017733 0.774640 Br
0.876102 0.017869 0.025570 Br
0.626452 0.517736 0.778680 Br
0.876036 0.518288 0.025919 Br
0.025390 0.981905 0.126299 Br
0.275397 0.981974 0.376260 Br
0.025824 0.482146 0.126331 Br
0.025955 0.981785 0.626155 Br
0.275676 0.981980 0.876139 Br
0.525557 0.981990 0.126087 Br
0.775742 0.982215 0.376758 Br
0.025192 0.482009 0.626130 Br
0.275694 0.481993 0.876177 Br
0.523399 0.480417 0.125850 Br
0.774916 0.484845 0.376423 Br
0.524538 0.984490 0.625897 Br
0.776050 0.983342 0.876309 Br
0.775965 0.482049 0.875513 Br
0.386281 0.375088 0.357270 Cs
0.634998 0.374759 0.604044 Cs
0.601224 0.620861 0.364027 Cs
0.350886 0.625298 0.636569 Cs
0.397718 0.375966 0.614177 Cs
0.646438 0.371106 0.360274 Cs
0.617727 0.626093 0.658273 Cs
0.363031 0.626364 0.392744 Cs
0.249997 0.249827 0.250057 Pb
0.500015 0.249806 0.500245 Pb
0.499474 0.249376 0.249705 Pb
0.250081 0.249916 0.500114 Pb
0.498041 0.497552 0.249023 Pb
0.253105 0.500341 0.500197 Pb
0.249452 0.499779 0.249727 Pb
0.506613 0.505524 0.500258 Pb
0.482632 0.625649 0.730541 Br
0.730239 0.375594 0.733791 Br
0.485553 0.383811 0.487446 Br
0.269243 0.624880 0.263945 Br
0.513622 0.373939 0.271217 Br
0.267458 0.375004 0.519525 Br
0.374339 0.482309 0.724499 Br
0.626697 0.475547 0.471391 Br
0.476851 0.520483 0.374189 Br
0.725891 0.521004 0.622499 Br
0.525609 0.267693 0.625913 Br
0.275514 0.267959 0.376292 Br
0.626141 0.739023 0.271674 Br
0.380216 0.727614 0.522420 Br
0.374095 0.268165 0.724291 Br
0.624581 0.267554 0.474675 Br
0.481585 0.728467 0.374574 Br
0.724860 0.732599 0.623566 Br
0.626148 0.507375 0.268284 Br
0.380219 0.522227 0.523305 Br
0.529008 0.486128 0.625944 Br
0.275731 0.482331 0.376178 Br
0.570919 0.634714 0.509970 Br
