Cs8 Pb7 Br24
1.0
8.420018 0.000000 8.077981
0.000000 11.763808 0.000000
-8.420018 0.000000 8.077981
Cs Pb Br Pb
8 6 24 1
direct
0.293068 0.241220 0.228894 Cs
0.744700 0.226118 0.692571 Cs
0.692762 0.765233 0.288526 Cs
0.220259 0.763470 0.756552 Cs
0.307251 0.234771 0.711477 Cs
0.779728 0.236521 0.243462 Cs
0.706938 0.758786 0.771107 Cs
0.255302 0.773876 0.307422 Cs
-0.000016 0.000000 -0.000021 Pb
0.500010 -0.000001 -0.000019 Pb
-0.000063 0.000005 0.500003 Pb
0.500007 0.499998 -0.000007 Pb
-0.000010 0.499997 0.500002 Pb
-0.000008 0.500000 -0.000004 Pb
0.459477 0.747714 0.964632 Br
0.980601 0.748037 0.447701 Br
0.936321 0.250572 0.966143 Br
0.493022 0.252006 0.472507 Br
0.063670 0.749428 0.033858 Br
0.506992 0.748002 0.527495 Br
0.540525 0.252285 0.035363 Br
0.019398 0.251963 0.552306 Br
0.247710 0.447696 0.947305 Br
0.749675 0.478536 0.442610 Br
0.443578 0.534268 0.246004 Br
0.949709 0.551617 0.748244 Br
0.535213 0.020376 0.753825 Br
0.049930 0.045489 0.249705 Br
0.754133 0.951734 0.047268 Br
0.247897 0.978462 0.543638 Br
0.245867 0.048265 0.952730 Br
0.752141 0.021534 0.456375 Br
0.464796 0.979623 0.246191 Br
0.950065 0.954516 0.750290 Br
0.752292 0.552307 0.052696 Br
0.250331 0.521465 0.557396 Br
0.556430 0.465732 0.753998 Br
0.050288 0.448382 0.251757 Br
0.500010 0.499996 0.499999 Pb
