Cs64 Pb64 Br191
1.0
16.840035 0.000000 16.155961
0.000000 23.527616 0.000000
-16.840035 0.000000 16.155961
Cs Pb Br Cs Pb Br
56 56 168 8 8 23
direct
0.886181 0.874970 0.353636 Cs
0.136314 0.875080 0.603715 Cs
0.887143 0.375866 0.352513 Cs
0.136945 0.375996 0.606632 Cs
0.886716 0.874992 0.854049 Cs
0.136216 0.875062 0.103605 Cs
0.385869 0.874813 0.353850 Cs
0.636099 0.875006 0.603411 Cs
0.885979 0.375245 0.853480 Cs
0.136096 0.375272 0.103447 Cs
0.386166 0.875024 0.854009 Cs
0.636239 0.875136 0.103854 Cs
0.386731 0.375265 0.853564 Cs
0.636334 0.375251 0.102917 Cs
0.103733 0.124103 0.385689 Cs
0.352622 0.124013 0.638904 Cs
0.103534 0.625287 0.386053 Cs
0.103938 0.125085 0.886199 Cs
0.354602 0.124996 0.136327 Cs
0.601354 0.117021 0.379700 Cs
0.854229 0.123150 0.639284 Cs
0.103918 0.625236 0.886298 Cs
0.353514 0.625245 0.135868 Cs
0.854367 0.625762 0.636144 Cs
0.604128 0.125053 0.886705 Cs
0.853845 0.124964 0.136431 Cs
0.603890 0.625154 0.886239 Cs
0.854076 0.625376 0.136166 Cs
0.896743 0.874983 0.114054 Cs
0.146789 0.875022 0.364144 Cs
0.896493 0.375124 0.113938 Cs
0.146881 0.376334 0.362837 Cs
0.896673 0.875116 0.614129 Cs
0.146755 0.875026 0.864292 Cs
0.396432 0.874846 0.113828 Cs
0.647081 0.874464 0.363640 Cs
0.896456 0.376371 0.614687 Cs
0.146429 0.375248 0.864191 Cs
0.396262 0.374960 0.114202 Cs
0.396451 0.875091 0.614310 Cs
0.646622 0.875045 0.864375 Cs
0.647015 0.375352 0.864665 Cs
0.114215 0.125051 0.146506 Cs
0.364049 0.124902 0.392764 Cs
0.114127 0.625229 0.146415 Cs
0.114215 0.124778 0.647159 Cs
0.364145 0.125010 0.897111 Cs
0.614213 0.124814 0.146437 Cs
0.863852 0.124322 0.395025 Cs
0.114242 0.625249 0.646445 Cs
0.364134 0.625374 0.896827 Cs
0.614152 0.625352 0.146304 Cs
0.864551 0.625275 0.396614 Cs
0.615015 0.123711 0.650604 Cs
0.864250 0.124852 0.896935 Cs
0.864700 0.625480 0.898106 Cs
0.750255 0.750019 0.249986 Pb
0.000160 0.750390 0.500103 Pb
0.750051 0.250548 0.249951 Pb
0.003372 0.250748 0.499769 Pb
0.750241 0.750777 0.750213 Pb
0.000181 0.750302 0.000123 Pb
0.250043 0.750097 0.249987 Pb
0.500063 0.750374 0.500064 Pb
0.750476 0.249849 0.750738 Pb
0.000129 0.250303 0.000053 Pb
0.250089 0.750315 0.750187 Pb
0.500137 0.750267 0.000129 Pb
0.250288 0.250282 0.750526 Pb
0.500127 0.250256 0.000161 Pb
0.000209 0.750365 0.250079 Pb
0.250163 0.750300 0.500136 Pb
0.000339 0.250266 0.249952 Pb
0.000222 0.750253 0.750205 Pb
0.250121 0.750382 0.000106 Pb
0.500011 0.749925 0.249950 Pb
0.750198 0.750526 0.500156 Pb
0.000186 0.250137 0.750401 Pb
0.250097 0.250393 0.000109 Pb
0.755789 0.249614 0.502200 Pb
0.500107 0.750669 0.750365 Pb
0.750136 0.750410 0.000140 Pb
0.499999 0.250295 0.750439 Pb
0.750321 0.250100 0.000210 Pb
0.000299 0.999902 0.250003 Pb
0.250277 0.000400 0.500076 Pb
0.000204 0.500466 0.249936 Pb
0.000368 0.999763 0.750340 Pb
0.250040 0.000263 0.000121 Pb
0.499445 0.998812 0.249484 Pb
0.749979 0.000621 0.499971 Pb
0.000349 0.500609 0.750314 Pb
0.250103 0.500351 0.000059 Pb
0.750162 0.500830 0.500449 Pb
0.500050 0.000077 0.750353 Pb
0.750225 0.999983 0.000174 Pb
0.499974 0.501282 0.751851 Pb
0.750269 0.500570 0.000221 Pb
0.750767 0.999631 0.249668 Pb
0.000136 0.000223 0.500135 Pb
0.750444 0.500756 0.249753 Pb
0.000276 0.500369 0.500145 Pb
0.750149 0.999579 0.750396 Pb
0.000183 0.000306 0.000141 Pb
0.249832 0.999913 0.249891 Pb
0.500190 0.000243 0.500456 Pb
0.752089 0.502646 0.751318 Pb
0.000173 0.500323 0.000129 Pb
0.250069 0.999971 0.750428 Pb
0.500056 0.000173 0.999981 Pb
0.250137 0.500716 0.750498 Pb
0.500253 0.500323 0.000667 Pb
0.984677 0.125428 0.231442 Br
0.235622 0.126247 0.479370 Br
0.984695 0.625317 0.231067 Br
0.234365 0.625090 0.480733 Br
0.985157 0.125209 0.731350 Br
0.234541 0.125541 0.981019 Br
0.485890 0.125150 0.233300 Br
0.730931 0.127207 0.477273 Br
0.984909 0.625358 0.730644 Br
0.234678 0.625360 0.981005 Br
0.484393 0.624914 0.230267 Br
0.484068 0.125941 0.730624 Br
0.734658 0.125371 0.981349 Br
0.734338 0.625415 0.981179 Br
0.230914 0.875331 0.234518 Br
0.480733 0.876308 0.484967 Br
0.230988 0.375405 0.233752 Br
0.230860 0.875539 0.734351 Br
0.481070 0.875427 0.984487 Br
0.731995 0.875116 0.234102 Br
0.980757 0.875820 0.484550 Br
0.231986 0.375404 0.735407 Br
0.481031 0.375211 0.984768 Br
0.730874 0.375529 0.233393 Br
0.979993 0.374612 0.484485 Br
0.730113 0.875608 0.733996 Br
0.981186 0.875429 0.984686 Br
0.980653 0.375311 0.984433 Br
0.767924 0.125640 0.266161 Br
0.019955 0.126198 0.516183 Br
0.770279 0.625120 0.266312 Br
0.019131 0.625130 0.515843 Br
0.768466 0.125343 0.766709 Br
0.019759 0.125526 0.015864 Br
0.268820 0.125521 0.264806 Br
0.527893 0.126619 0.515483 Br
0.771585 0.626458 0.767066 Br
0.019597 0.625309 0.015854 Br
0.269054 0.125509 0.767294 Br
0.519722 0.125482 0.016143 Br
0.269775 0.625562 0.766370 Br
0.519829 0.625289 0.015926 Br
0.016146 0.875403 0.270105 Br
0.266386 0.875863 0.519293 Br
0.016458 0.375307 0.269253 Br
0.016354 0.875271 0.769809 Br
0.265991 0.875480 0.019557 Br
0.515661 0.874752 0.270209 Br
0.766037 0.876274 0.519161 Br
0.015666 0.375203 0.768963 Br
0.266040 0.375343 0.019666 Br
0.759249 0.374191 0.524751 Br
0.516083 0.875937 0.769956 Br
0.766075 0.875402 0.020026 Br
0.517583 0.375774 0.767285 Br
0.766078 0.375278 0.018633 Br
0.874393 0.982186 0.224521 Br
0.124187 0.982481 0.474697 Br
0.874005 0.482086 0.224624 Br
0.124010 0.481648 0.474804 Br
0.873975 0.982080 0.724695 Br
0.124061 0.982216 0.974615 Br
0.373943 0.982103 0.224357 Br
0.624041 0.981528 0.474105 Br
0.874558 0.483078 0.724153 Br
0.124048 0.482151 0.974670 Br
0.374224 0.481942 0.224771 Br
0.374102 0.982216 0.724632 Br
0.624062 0.982205 0.974718 Br
0.624111 0.482242 0.974634 Br
0.974707 0.018129 0.374141 Br
0.224809 0.018320 0.623900 Br
0.974658 0.517900 0.374097 Br
0.224946 0.518059 0.623998 Br
0.974689 0.018031 0.873970 Br
0.224689 0.018059 0.124014 Br
0.474341 0.017427 0.374057 Br
0.724944 0.018398 0.623797 Br
0.974603 0.518054 0.873933 Br
0.224682 0.518096 0.124125 Br
0.474671 0.018273 0.873870 Br
0.724851 0.018138 0.123976 Br
0.474572 0.518047 0.874888 Br
0.724659 0.518142 0.124331 Br
0.025668 0.768076 0.126273 Br
0.275610 0.767930 0.376298 Br
0.025586 0.267980 0.126460 Br
0.025633 0.768124 0.626118 Br
0.275622 0.768117 0.876170 Br
0.525685 0.768153 0.126320 Br
0.775652 0.767981 0.376315 Br
0.025498 0.268279 0.625777 Br
0.275929 0.268202 0.876014 Br
0.525987 0.267772 0.126802 Br
0.774102 0.271711 0.377777 Br
0.525578 0.768037 0.626136 Br
0.775653 0.768419 0.876193 Br
0.775882 0.267396 0.876136 Br
0.126296 0.232538 0.276351 Br
0.379987 0.231191 0.526874 Br
0.126256 0.732143 0.275630 Br
0.126412 0.232394 0.775328 Br
0.376316 0.232187 0.025737 Br
0.626480 0.233696 0.279872 Br
0.872935 0.231858 0.526307 Br
0.126241 0.732139 0.775544 Br
0.376263 0.732250 0.025557 Br
0.876135 0.732450 0.525517 Br
0.626343 0.233073 0.776206 Br
0.876160 0.232066 0.025741 Br
0.626271 0.732154 0.775705 Br
0.876220 0.732278 0.025675 Br
0.874081 0.767999 0.224667 Br
0.124066 0.768057 0.474710 Br
0.873791 0.268026 0.225175 Br
0.124992 0.268443 0.474805 Br
0.874003 0.768382 0.724588 Br
0.124060 0.768034 0.974648 Br
0.374088 0.768047 0.224664 Br
0.624021 0.768069 0.474616 Br
0.873938 0.266634 0.723213 Br
0.124050 0.268107 0.974669 Br
0.374594 0.268393 0.226782 Br
0.374102 0.768154 0.724652 Br
0.624054 0.768065 0.974682 Br
0.624058 0.268009 0.974730 Br
0.975060 0.232106 0.374941 Br
0.225056 0.231807 0.623515 Br
0.974703 0.732240 0.374118 Br
0.224792 0.732150 0.623943 Br
0.974561 0.232268 0.873836 Br
0.225054 0.232265 0.124339 Br
0.479410 0.231790 0.376643 Br
0.722062 0.232825 0.623015 Br
0.974774 0.732230 0.873967 Br
0.224684 0.732186 0.124053 Br
0.474766 0.232469 0.873670 Br
0.724624 0.232248 0.124918 Br
0.474717 0.732353 0.874050 Br
0.724731 0.732112 0.124101 Br
0.126346 0.017933 0.275611 Br
0.376691 0.021309 0.525043 Br
0.126290 0.518106 0.275738 Br
0.126259 0.018018 0.775636 Br
0.376278 0.018122 0.025610 Br
0.626266 0.014066 0.272077 Br
0.876036 0.020524 0.525120 Br
0.126408 0.518040 0.775682 Br
0.376314 0.517959 0.025725 Br
0.876094 0.517455 0.525929 Br
0.626214 0.017975 0.776003 Br
0.876223 0.018123 0.025679 Br
0.626892 0.517597 0.774615 Br
0.876220 0.518086 0.025939 Br
0.025725 0.982217 0.126297 Br
0.275840 0.982463 0.376233 Br
0.025613 0.482177 0.126252 Br
0.025555 0.982209 0.626110 Br
0.275713 0.982114 0.876130 Br
0.525273 0.982098 0.126133 Br
0.775470 0.982307 0.376209 Br
0.025560 0.482127 0.626094 Br
0.275770 0.482088 0.876197 Br
0.525909 0.481843 0.126568 Br
0.775278 0.481450 0.376735 Br
0.525711 0.982261 0.626103 Br
0.775765 0.981962 0.876043 Br
0.776820 0.483784 0.876618 Br
0.387405 0.375880 0.354208 Cs
0.636201 0.385095 0.618977 Cs
0.604135 0.625534 0.386084 Cs
0.354026 0.625221 0.636737 Cs
0.397522 0.378442 0.614689 Cs
0.647301 0.380122 0.360983 Cs
0.613729 0.626401 0.647828 Cs
0.363914 0.625367 0.396372 Cs
0.249895 0.250522 0.249858 Pb
0.495440 0.248133 0.503647 Pb
0.500585 0.250494 0.250148 Pb
0.249129 0.250649 0.499808 Pb
0.499882 0.500517 0.249739 Pb
0.249901 0.500438 0.499975 Pb
0.250082 0.500474 0.249931 Pb
0.499979 0.501209 0.499826 Pb
0.484062 0.625874 0.732733 Br
0.734908 0.625003 0.480766 Br
0.737083 0.376100 0.739317 Br
0.485375 0.373735 0.485025 Br
0.269923 0.625279 0.265844 Br
0.520679 0.625419 0.515760 Br
0.516607 0.375209 0.270399 Br
0.266520 0.374673 0.521036 Br
0.374447 0.482771 0.726038 Br
0.624019 0.481081 0.476748 Br
0.474800 0.518177 0.374122 Br
0.725574 0.520759 0.624639 Br
0.529854 0.269749 0.626018 Br
0.276501 0.268848 0.376880 Br
0.626247 0.732114 0.275510 Br
0.376310 0.732014 0.525688 Br
0.374453 0.268888 0.723223 Br
0.474705 0.732045 0.374166 Br
0.724739 0.732219 0.623948 Br
0.626327 0.518116 0.275835 Br
0.376162 0.518098 0.525435 Br
0.522583 0.486721 0.626537 Br
0.275725 0.481865 0.376307 Br
