Cs8 Pb8 Br23                            
   1.0000000000000000     
     8.4564889999999995    0.0000000000000000    8.0403009999999995
     0.0000000000000000   11.7298469999999995    0.0000000000000000
    -8.4564889999999995    0.0000000000000000    8.0403009999999995
   Cs   Pb   Br
     8     8    23
Direct
  0.2755560000000017  0.2498810000000020  0.2126390000000029
  0.7728159999999988  0.2473010000000002  0.7019889999999975
  0.7085519999999974  0.7506270000000015  0.2634559999999979
  0.2227370000000022  0.7440720000000027  0.7731390000000005
  0.2422579999999996  0.2323260000000005  0.7319480000000027
  0.8050240000000031  0.2500640000000018  0.2283520000000010
  0.7557979999999986  0.7686390000000003  0.8135150000000024
  0.2166410000000027  0.7546249999999972  0.2745540000000020
  0.0057029999999969  0.0043110000000013  0.0007140000000021
  0.4997510000000034  0.9928280000000029  0.5118510000000001
  0.5069519999999983  0.0072720000000004  0.0105170000000001
  0.9984389999999976  0.9951969999999974  0.4938239999999965
  0.5000069999999965  0.5070559999999986  0.9981059999999999
  0.9945379999999986  0.5007549999999981  0.4937049999999985
  0.0011060000000001  0.4998209999999972  0.9946369999999973
  0.4895810000000012  0.4860490000000013  0.4863730000000004
  0.4814119999999988  0.7568580000000011  0.9769420000000011
  0.9644010000000023  0.7482789999999966  0.4520419999999987
  0.9687029999999979  0.2521289999999965  0.9595350000000025
  0.4582040000000021  0.2336110000000033  0.5022319999999993
  0.0306580000000025  0.7521220000000000  0.0155310000000028
  0.5348540000000028  0.2598339999999979  0.0450480000000013
  0.0152799999999971  0.2481859999999969  0.5127099999999984
  0.2518799999999999  0.4649670000000015  0.9439429999999973
  0.7338209999999989  0.4644359999999992  0.4450999999999965
  0.4490639999999999  0.5437519999999978  0.2362430000000018
  0.9459549999999979  0.5296280000000024  0.7405469999999994
  0.5570459999999997  0.0292919999999981  0.7639179999999968
  0.0586759999999984  0.0354280000000031  0.2480740000000026
  0.7582269999999980  0.9756140000000002  0.0610140000000001
  0.2541149999999988  0.9535789999999977  0.5473420000000004
  0.2537850000000006  0.0290889999999990  0.9613299999999967
  0.7458439999999982  0.0286720000000003  0.4512160000000023
  0.4525000000000006  0.9626730000000023  0.2624190000000013
  0.9667719999999989  0.9824059999999974  0.7426829999999995
  0.7528989999999993  0.5340029999999985  0.0441259999999986
  0.2426510000000022  0.5244900000000001  0.5450779999999966
  0.0539139999999989  0.4682559999999967  0.2448779999999999
  0.5284850000000034  0.6327730000000003  0.6610780000000034

  0.00000000E+00  0.00000000E+00  0.00000000E+00
  0.00000000E+00  0.00000000E+00  0.00000000E+00
  0.00000000E+00  0.00000000E+00  0.00000000E+00
  0.00000000E+00  0.00000000E+00  0.00000000E+00
  0.00000000E+00  0.00000000E+00  0.00000000E+00
  0.00000000E+00  0.00000000E+00  0.00000000E+00
  0.00000000E+00  0.00000000E+00  0.00000000E+00
  0.00000000E+00  0.00000000E+00  0.00000000E+00
  0.00000000E+00  0.00000000E+00  0.00000000E+00
  0.00000000E+00  0.00000000E+00  0.00000000E+00
  0.00000000E+00  0.00000000E+00  0.00000000E+00
  0.00000000E+00  0.00000000E+00  0.00000000E+00
  0.00000000E+00  0.00000000E+00  0.00000000E+00
  0.00000000E+00  0.00000000E+00  0.00000000E+00
  0.00000000E+00  0.00000000E+00  0.00000000E+00
  0.00000000E+00  0.00000000E+00  0.00000000E+00
  0.00000000E+00  0.00000000E+00  0.00000000E+00
  0.00000000E+00  0.00000000E+00  0.00000000E+00
  0.00000000E+00  0.00000000E+00  0.00000000E+00
  0.00000000E+00  0.00000000E+00  0.00000000E+00
  0.00000000E+00  0.00000000E+00  0.00000000E+00
  0.00000000E+00  0.00000000E+00  0.00000000E+00
  0.00000000E+00  0.00000000E+00  0.00000000E+00
  0.00000000E+00  0.00000000E+00  0.00000000E+00
  0.00000000E+00  0.00000000E+00  0.00000000E+00
  0.00000000E+00  0.00000000E+00  0.00000000E+00
  0.00000000E+00  0.00000000E+00  0.00000000E+00
  0.00000000E+00  0.00000000E+00  0.00000000E+00
  0.00000000E+00  0.00000000E+00  0.00000000E+00
  0.00000000E+00  0.00000000E+00  0.00000000E+00
  0.00000000E+00  0.00000000E+00  0.00000000E+00
  0.00000000E+00  0.00000000E+00  0.00000000E+00
  0.00000000E+00  0.00000000E+00  0.00000000E+00
  0.00000000E+00  0.00000000E+00  0.00000000E+00
  0.00000000E+00  0.00000000E+00  0.00000000E+00
  0.00000000E+00  0.00000000E+00  0.00000000E+00
  0.00000000E+00  0.00000000E+00  0.00000000E+00
  0.00000000E+00  0.00000000E+00  0.00000000E+00
  0.00000000E+00  0.00000000E+00  0.00000000E+00
