Cs8 Pb8 Br23
1.0
8.456489 0.000000 8.040301
0.000000 11.729847 0.000000
-8.456489 0.000000 8.040301
Cs Pb Br
8 8 23
direct
0.275556 0.249881 0.212639 Cs
0.772816 0.247301 0.701989 Cs
0.708552 0.750627 0.263456 Cs
0.222737 0.744072 0.773139 Cs
0.242258 0.232326 0.731948 Cs
0.805024 0.250064 0.228352 Cs
0.755798 0.768639 0.813515 Cs
0.216641 0.754625 0.274554 Cs
0.005703 0.004311 0.000714 Pb
0.499751 -0.007172 0.511851 Pb
0.506952 0.007272 0.010517 Pb
-0.001561 -0.004803 0.493824 Pb
0.500007 0.507056 -0.001894 Pb
-0.005462 0.500755 0.493705 Pb
0.001106 0.499821 -0.005363 Pb
0.489581 0.486049 0.486373 Pb
0.481412 0.756858 0.976942 Br
0.964401 0.748279 0.452042 Br
0.968703 0.252129 0.959535 Br
0.458204 0.233611 0.502232 Br
0.030658 0.752122 0.015531 Br
0.534854 0.259834 0.045048 Br
0.015280 0.248186 0.512710 Br
0.251880 0.464967 0.943943 Br
0.733821 0.464436 0.445100 Br
0.449064 0.543752 0.236243 Br
0.945955 0.529628 0.740547 Br
0.557046 0.029292 0.763918 Br
0.058676 0.035428 0.248074 Br
0.758227 0.975614 0.061014 Br
0.254115 0.953579 0.547342 Br
0.253785 0.029089 0.961330 Br
0.745844 0.028672 0.451216 Br
0.452500 0.962673 0.262419 Br
0.966772 0.982406 0.742683 Br
0.752899 0.534003 0.044126 Br
0.242651 0.524490 0.545078 Br
0.053914 0.468256 0.244878 Br
0.528485 0.632773 0.661078 Br
