Cs8 Pb8 Br24                            
   1.0000000000000000     
    11.7353520000000007    0.0000000000000000    0.0000000000000000
     0.0000000000000000   11.7353520000000007    0.0000000000000000
     0.0000000000000000    0.0000000000000000   11.7353520000000007
   Cs   Pb   Br
     8     8    24
Direct
  0.2500000000000000  0.2500000000000000  0.2500000000000000
  0.2500000000000000  0.2500000000000000  0.7500000000000000
  0.2500000000000000  0.7500000000000000  0.2500000000000000
  0.2500000000000000  0.7500000000000000  0.7500000000000000
  0.7500000000000000  0.2500000000000000  0.2500000000000000
  0.7500000000000000  0.2500000000000000  0.7500000000000000
  0.7500000000000000  0.7500000000000000  0.2500000000000000
  0.7500000000000000  0.7500000000000000  0.7500000000000000
  0.0000000000000000  0.0000000000000000  0.0000000000000000
  0.0000000000000000  0.0000000000000000  0.5000000000000000
  0.0000000000000000  0.5000000000000000  0.0000000000000000
  0.0000000000000000  0.5000000000000000  0.5000000000000000
  0.5000000000000000  0.0000000000000000  0.0000000000000000
  0.5000000000000000  0.0000000000000000  0.5000000000000000
  0.5000000000000000  0.5000000000000000  0.0000000000000000
  0.5000000000000000  0.5000000000000000  0.5000000000000000
  0.9212500000000006  0.2500000000000000  0.0874999999999986
  0.9212500000000006  0.2500000000000000  0.4125000000000014
  0.0787499999999994  0.7500000000000000  0.9125000000000014
  0.0787499999999994  0.7500000000000000  0.5874999999999986
  0.5787499999999994  0.2500000000000000  0.9125000000000014
  0.5787499999999994  0.2500000000000000  0.5874999999999986
  0.4212500000000006  0.7500000000000000  0.0874999999999986
  0.4212500000000006  0.7500000000000000  0.4125000000000014
  0.0874999999999986  0.9125000000000014  0.2500000000000000
  0.9125000000000014  0.0874999999999986  0.7500000000000000
  0.9125000000000014  0.5874999999999986  0.2500000000000000
  0.0874999999999986  0.4125000000000014  0.7500000000000000
  0.4125000000000014  0.0874999999999986  0.2500000000000000
  0.5874999999999986  0.9125000000000014  0.7500000000000000
  0.5874999999999986  0.4125000000000014  0.2500000000000000
  0.4125000000000014  0.5874999999999986  0.7500000000000000
  0.2500000000000000  0.0787499999999994  0.9125000000000014
  0.2500000000000000  0.0787499999999994  0.5874999999999986
  0.2500000000000000  0.4212500000000006  0.0874999999999986
  0.2500000000000000  0.4212500000000006  0.4125000000000014
  0.7500000000000000  0.9212500000000006  0.0874999999999986
  0.7500000000000000  0.9212500000000006  0.4125000000000014
  0.7500000000000000  0.5787499999999994  0.9125000000000014
  0.7500000000000000  0.5787499999999994  0.5874999999999986

  0.00000000E+00  0.00000000E+00  0.00000000E+00
  0.00000000E+00  0.00000000E+00  0.00000000E+00
  0.00000000E+00  0.00000000E+00  0.00000000E+00
  0.00000000E+00  0.00000000E+00  0.00000000E+00
  0.00000000E+00  0.00000000E+00  0.00000000E+00
  0.00000000E+00  0.00000000E+00  0.00000000E+00
  0.00000000E+00  0.00000000E+00  0.00000000E+00
  0.00000000E+00  0.00000000E+00  0.00000000E+00
  0.00000000E+00  0.00000000E+00  0.00000000E+00
  0.00000000E+00  0.00000000E+00  0.00000000E+00
  0.00000000E+00  0.00000000E+00  0.00000000E+00
  0.00000000E+00  0.00000000E+00  0.00000000E+00
  0.00000000E+00  0.00000000E+00  0.00000000E+00
  0.00000000E+00  0.00000000E+00  0.00000000E+00
  0.00000000E+00  0.00000000E+00  0.00000000E+00
  0.00000000E+00  0.00000000E+00  0.00000000E+00
  0.00000000E+00  0.00000000E+00  0.00000000E+00
  0.00000000E+00  0.00000000E+00  0.00000000E+00
  0.00000000E+00  0.00000000E+00  0.00000000E+00
  0.00000000E+00  0.00000000E+00  0.00000000E+00
  0.00000000E+00  0.00000000E+00  0.00000000E+00
  0.00000000E+00  0.00000000E+00  0.00000000E+00
  0.00000000E+00  0.00000000E+00  0.00000000E+00
  0.00000000E+00  0.00000000E+00  0.00000000E+00
  0.00000000E+00  0.00000000E+00  0.00000000E+00
  0.00000000E+00  0.00000000E+00  0.00000000E+00
  0.00000000E+00  0.00000000E+00  0.00000000E+00
  0.00000000E+00  0.00000000E+00  0.00000000E+00
  0.00000000E+00  0.00000000E+00  0.00000000E+00
  0.00000000E+00  0.00000000E+00  0.00000000E+00
  0.00000000E+00  0.00000000E+00  0.00000000E+00
  0.00000000E+00  0.00000000E+00  0.00000000E+00
  0.00000000E+00  0.00000000E+00  0.00000000E+00
  0.00000000E+00  0.00000000E+00  0.00000000E+00
  0.00000000E+00  0.00000000E+00  0.00000000E+00
  0.00000000E+00  0.00000000E+00  0.00000000E+00
  0.00000000E+00  0.00000000E+00  0.00000000E+00
  0.00000000E+00  0.00000000E+00  0.00000000E+00
  0.00000000E+00  0.00000000E+00  0.00000000E+00
  0.00000000E+00  0.00000000E+00  0.00000000E+00
