Cs64 Pb64 Br191
1.0
16.840035 0.000000 16.155961
0.000000 23.527616 0.000000
-16.840035 0.000000 16.155961
Cs Pb Br Cs Pb Br
56 56 168 8 8 23
direct
0.886105 0.875103 0.353730 Cs
0.136041 0.875088 0.603857 Cs
0.886125 0.374883 0.353720 Cs
0.136076 0.374918 0.603959 Cs
0.886351 0.875202 0.854096 Cs
0.135824 0.875124 0.103515 Cs
0.383452 0.875320 0.350582 Cs
0.636861 0.875114 0.604908 Cs
0.886186 0.374803 0.853930 Cs
0.135937 0.374861 0.103706 Cs
0.386079 0.875166 0.853763 Cs
0.636108 0.875007 0.103634 Cs
0.386029 0.374841 0.853699 Cs
0.636149 0.374988 0.103595 Cs
0.103737 0.125008 0.386064 Cs
0.352888 0.124953 0.636014 Cs
0.102528 0.624989 0.385573 Cs
0.103661 0.125006 0.886076 Cs
0.354041 0.124991 0.135892 Cs
0.604153 0.125048 0.384996 Cs
0.854024 0.124978 0.636220 Cs
0.104004 0.624982 0.886074 Cs
0.353708 0.625011 0.135326 Cs
0.854126 0.625005 0.636346 Cs
0.604064 0.125024 0.886245 Cs
0.853832 0.124987 0.135972 Cs
0.604325 0.624953 0.887859 Cs
0.853622 0.625002 0.136671 Cs
0.896394 0.875076 0.113940 Cs
0.145894 0.875161 0.363775 Cs
0.896331 0.374910 0.113918 Cs
0.145940 0.374854 0.363856 Cs
0.896484 0.875141 0.614057 Cs
0.146126 0.875159 0.864027 Cs
0.395743 0.875072 0.113706 Cs
0.647722 0.875205 0.363983 Cs
0.896595 0.374852 0.614150 Cs
0.146241 0.374830 0.863861 Cs
0.395795 0.374930 0.113703 Cs
0.395778 0.875148 0.615368 Cs
0.645939 0.875210 0.864301 Cs
0.645976 0.374780 0.864370 Cs
0.113707 0.124991 0.145997 Cs
0.363580 0.125009 0.395948 Cs
0.114211 0.625008 0.146424 Cs
0.113976 0.124987 0.646280 Cs
0.363975 0.124999 0.896504 Cs
0.613995 0.125003 0.146242 Cs
0.864158 0.125002 0.396151 Cs
0.113639 0.625000 0.646291 Cs
0.363696 0.625000 0.896954 Cs
0.614348 0.624997 0.145308 Cs
0.864158 0.624986 0.395962 Cs
0.614620 0.125024 0.646998 Cs
0.864240 0.124981 0.896597 Cs
0.863767 0.625015 0.895773 Cs
0.750466 0.750512 0.249623 Pb
0.000171 0.750131 0.500031 Pb
0.750176 0.249748 0.249868 Pb
0.000020 0.249905 0.500021 Pb
0.750485 0.751001 0.750453 Pb
0.000029 0.749807 0.000044 Pb
0.249311 0.750686 0.249404 Pb
0.499249 0.754827 0.498665 Pb
0.750322 0.249509 0.750332 Pb
0.000015 0.250072 0.000006 Pb
0.249685 0.750314 0.750380 Pb
0.499917 0.750155 0.000023 Pb
0.249886 0.249733 0.750184 Pb
0.499998 0.249918 0.000054 Pb
0.000104 0.750169 0.249920 Pb
0.249783 0.749741 0.500081 Pb
0.999959 0.249855 0.249929 Pb
0.000127 0.750085 0.750169 Pb
0.249793 0.750203 0.999908 Pb
0.499852 0.750066 0.249667 Pb
0.750848 0.750232 0.500176 Pb
0.999998 0.249853 0.750067 Pb
0.249898 0.249874 0.999925 Pb
0.750239 0.249716 0.500081 Pb
0.499948 0.749820 0.750319 Pb
0.750263 0.750128 0.000178 Pb
0.499946 0.249647 0.750161 Pb
0.750132 0.249858 0.000081 Pb
0.999965 0.000107 0.249935 Pb
0.249760 0.999778 0.500005 Pb
0.000093 0.499762 0.249902 Pb
0.000010 0.000063 0.750071 Pb
0.249902 0.000092 0.999931 Pb
0.500105 0.999761 0.249904 Pb
0.750226 0.000384 0.500064 Pb
0.000111 0.499912 0.750180 Pb
0.249792 0.499740 0.999903 Pb
0.750787 0.499615 0.500157 Pb
0.499958 0.000372 0.750169 Pb
0.750132 0.000068 0.000085 Pb
0.499888 0.500187 0.750287 Pb
0.750293 0.499889 0.000191 Pb
0.750164 0.000225 0.249873 Pb
0.000028 0.000071 0.500025 Pb
0.750456 0.499454 0.249612 Pb
0.000157 0.499860 0.500027 Pb
0.750246 0.000242 0.750252 Pb
0.000026 0.999977 0.000026 Pb
0.249768 0.000488 0.249796 Pb
0.500120 0.001638 0.500124 Pb
0.750543 0.499229 0.750525 Pb
0.000023 0.500070 0.000024 Pb
0.249878 0.000154 0.750173 Pb
0.500006 0.000066 0.000056 Pb
0.249694 0.499800 0.750390 Pb
0.499912 0.499791 0.000019 Pb
0.984140 0.124982 0.230844 Br
0.234671 0.124960 0.481236 Br
0.984547 0.624970 0.231331 Br
0.232282 0.625090 0.480415 Br
0.984326 0.124959 0.730695 Br
0.234202 0.124982 0.980662 Br
0.484549 0.125033 0.231788 Br
0.733663 0.125026 0.480390 Br
0.984261 0.624997 0.731010 Br
0.234240 0.624966 0.981538 Br
0.484975 0.625051 0.229628 Br
0.484014 0.125023 0.729644 Br
0.734300 0.124957 0.980847 Br
0.734656 0.624996 0.981333 Br
0.230940 0.875398 0.234215 Br
0.479585 0.871203 0.483015 Br
0.231344 0.374659 0.234531 Br
0.231057 0.875000 0.734111 Br
0.480767 0.874942 0.984277 Br
0.731035 0.875126 0.233984 Br
0.980958 0.874955 0.484214 Br
0.231703 0.374994 0.734000 Br
0.480713 0.375026 0.984161 Br
0.731096 0.374829 0.233915 Br
0.980934 0.375031 0.484228 Br
0.730449 0.875255 0.734603 Br
0.981102 0.874889 0.984463 Br
0.980811 0.375069 0.984314 Br
0.769203 0.124983 0.266047 Br
0.019178 0.124978 0.515834 Br
0.766548 0.624974 0.267012 Br
0.018755 0.624979 0.515809 Br
0.769560 0.124935 0.766060 Br
0.018985 0.125009 0.015622 Br
0.269869 0.124981 0.265877 Br
0.518702 0.125073 0.515307 Br
0.766556 0.625133 0.764528 Br
0.019639 0.624937 0.015891 Br
0.269469 0.124956 0.766037 Br
0.519194 0.124979 0.015807 Br
0.267089 0.625041 0.767989 Br
0.518549 0.624963 0.015977 Br
0.015580 0.875058 0.269269 Br
0.266878 0.874515 0.519672 Br
0.015656 0.374896 0.269309 Br
0.015712 0.874977 0.769076 Br
0.265653 0.875055 0.019117 Br
0.515599 0.874621 0.271705 Br
0.765204 0.874984 0.519150 Br
0.015658 0.374985 0.768991 Br
0.265672 0.374896 0.019159 Br
0.765365 0.374960 0.519547 Br
0.515661 0.874773 0.767615 Br
0.765811 0.874981 0.019351 Br
0.515667 0.375252 0.767694 Br
0.765780 0.374980 0.019176 Br
0.873935 0.982066 0.224549 Br
0.124199 0.981973 0.474586 Br
0.874017 0.482135 0.224408 Br
0.124826 0.482042 0.474796 Br
0.873874 0.982023 0.724474 Br
0.124014 0.982102 0.974522 Br
0.374080 0.981990 0.224522 Br
0.623333 0.981888 0.474789 Br
0.873790 0.482213 0.724436 Br
0.123985 0.481949 0.974371 Br
0.374007 0.482299 0.224763 Br
0.374100 0.982164 0.724570 Br
0.623880 0.982094 0.974651 Br
0.623894 0.482118 0.974744 Br
0.974571 0.017948 0.374075 Br
0.224581 0.017909 0.623899 Br
0.974504 0.517838 0.374117 Br
0.224536 0.518096 0.623907 Br
0.974513 0.017895 0.873924 Br
0.224525 0.018087 0.124035 Br
0.474330 0.017735 0.374644 Br
0.724445 0.017940 0.623918 Br
0.974439 0.517985 0.873921 Br
0.224293 0.517429 0.123868 Br
0.474624 0.017908 0.873753 Br
0.724437 0.017996 0.124045 Br
0.474668 0.518152 0.873557 Br
0.724651 0.517925 0.124050 Br
0.025580 0.767908 0.126133 Br
0.275443 0.767709 0.376066 Br
0.025495 0.267920 0.126093 Br
0.025458 0.767966 0.625986 Br
0.275622 0.768125 0.875915 Br
0.524867 0.768181 0.126657 Br
0.775311 0.767855 0.376188 Br
0.025475 0.267950 0.625958 Br
0.275574 0.267960 0.876010 Br
0.525382 0.268160 0.126319 Br
0.775403 0.268008 0.376194 Br
0.527864 0.764431 0.624476 Br
0.775752 0.767997 0.875985 Br
0.775476 0.267878 0.876047 Br
0.126140 0.231969 0.275548 Br
0.376490 0.232306 0.525650 Br
0.126089 0.732475 0.275807 Br
0.126122 0.232062 0.775501 Br
0.376112 0.232068 0.025490 Br
0.625960 0.232310 0.275526 Br
0.875758 0.232033 0.525498 Br
0.126032 0.732261 0.775537 Br
0.376104 0.732192 0.025365 Br
0.875863 0.732047 0.525493 Br
0.625964 0.231993 0.775367 Br
0.875997 0.232065 0.025555 Br
0.625920 0.732647 0.777153 Br
0.876005 0.731878 0.025651 Br
0.874005 0.767847 0.224412 Br
0.124751 0.768034 0.474736 Br
0.873942 0.267928 0.224549 Br
0.124148 0.267993 0.474601 Br
0.873752 0.767903 0.724469 Br
0.123997 0.767967 0.974395 Br
0.374012 0.767808 0.224809 Br
0.623166 0.765173 0.473094 Br
0.873914 0.267864 0.724453 Br
0.124009 0.267959 0.974498 Br
0.374072 0.267932 0.224454 Br
0.374143 0.767631 0.724437 Br
0.623901 0.767883 0.974739 Br
0.623884 0.267883 0.974660 Br
0.974562 0.232048 0.374058 Br
0.224585 0.232088 0.623919 Br
0.974500 0.732144 0.374117 Br
0.224473 0.731930 0.623898 Br
0.974498 0.232085 0.873917 Br
0.224497 0.231922 0.124032 Br
0.474346 0.232275 0.374625 Br
0.724498 0.232069 0.623980 Br
0.974451 0.732015 0.873919 Br
0.224341 0.732547 0.123882 Br
0.474639 0.232080 0.873736 Br
0.724444 0.231993 0.124070 Br
0.474672 0.731850 0.873542 Br
0.724641 0.732071 0.124029 Br
0.126147 0.018041 0.275565 Br
0.376557 0.017648 0.525580 Br
0.126073 0.517517 0.275784 Br
0.126100 0.017970 0.775499 Br
0.376126 0.017925 0.025487 Br
0.625956 0.017733 0.275531 Br
0.875810 0.017953 0.525501 Br
0.126045 0.517695 0.775533 Br
0.376099 0.517793 0.025379 Br
0.875862 0.517933 0.525470 Br
0.625939 0.018085 0.775404 Br
0.875994 0.017910 0.025539 Br
0.625948 0.517211 0.777025 Br
0.876015 0.518124 0.025665 Br
0.025491 0.982109 0.126100 Br
0.275347 0.982196 0.376123 Br
0.025585 0.482036 0.126128 Br
0.025465 0.982031 0.625959 Br
0.275573 0.982028 0.876005 Br
0.525372 0.981873 0.126321 Br
0.775426 0.982024 0.376179 Br
0.025467 0.482041 0.625974 Br
0.275629 0.481890 0.875923 Br
0.524898 0.481801 0.126641 Br
0.775290 0.482081 0.376207 Br
0.525428 0.981883 0.625267 Br
0.775454 0.981996 0.876003 Br
0.775783 0.482143 0.876036 Br
0.382815 0.374672 0.350217 Cs
0.637638 0.374830 0.606588 Cs
0.610869 0.624940 0.379274 Cs
0.349595 0.625148 0.639060 Cs
0.395040 0.374816 0.615579 Cs
0.647658 0.374689 0.363875 Cs
0.621254 0.624991 0.657554 Cs
0.357410 0.625067 0.390144 Cs
0.249757 0.249417 0.249791 Pb
0.500093 0.248671 0.500136 Pb
0.500080 0.250255 0.249910 Pb
0.249740 0.250129 0.500008 Pb
0.499831 0.499966 0.249708 Pb
0.249842 0.500474 0.500044 Pb
0.249300 0.499454 0.249383 Pb
0.499177 0.494945 0.498648 Pb
0.484377 0.625007 0.727765 Br
0.734209 0.624908 0.481450 Br
0.731454 0.374811 0.735397 Br
0.478023 0.378794 0.482974 Br
0.265534 0.625073 0.261961 Br
0.515310 0.375457 0.271913 Br
0.266588 0.375543 0.519287 Br
0.374143 0.482568 0.724420 Br
0.476739 0.524967 0.375844 Br
0.724629 0.517300 0.623938 Br
0.525361 0.268282 0.625261 Br
0.275258 0.267636 0.376134 Br
0.625945 0.733852 0.273457 Br
0.377678 0.727803 0.524667 Br
0.374114 0.267692 0.724610 Br
0.623240 0.268453 0.475141 Br
0.476478 0.725359 0.375844 Br
0.724612 0.732664 0.623897 Br
0.625956 0.516043 0.273436 Br
0.377757 0.523728 0.524035 Br
0.527386 0.484960 0.624473 Br
0.275341 0.482476 0.376064 Br
0.623164 0.484049 0.473344 Br
