Cs7 Pb8 Br24
1.0
8.420018 0.000000 8.077981
0.000000 11.763808 0.000000
-8.420018 0.000000 8.077981
Cs Pb Br Cs
6 8 24 1
direct
0.251508 0.249990 0.204401 Cs
0.775205 0.250004 0.720531 Cs
0.193243 0.750003 0.758146 Cs
0.276451 0.250008 0.740668 Cs
0.759195 0.250007 0.227572 Cs
0.740959 0.750003 0.780976 Cs
-0.007112 -0.005322 0.007776 Pb
0.501848 0.004188 0.501471 Pb
0.502017 0.003736 -0.014183 Pb
-0.000304 -0.000989 0.500209 Pb
0.501999 0.496231 -0.014176 Pb
-0.000298 0.500982 0.500214 Pb
-0.007130 0.505280 0.007783 Pb
0.501871 0.495828 0.501472 Pb
0.462914 0.749980 0.934246 Br
0.964988 0.750007 0.501819 Br
0.959049 0.250009 0.980934 Br
0.456708 0.250019 0.500727 Br
0.052068 0.749992 0.029472 Br
0.541601 0.750031 0.528425 Br
0.547401 0.249986 -0.022892 Br
0.030794 0.250004 0.546346 Br
0.246376 0.464316 0.959631 Br
0.748047 0.448053 0.468287 Br
0.478226 0.456298 0.239693 Br
0.952235 0.524218 0.754312 Br
0.565198 0.020873 0.744736 Br
0.027608 0.051396 0.255196 Br
0.745921 0.949961 0.047949 Br
0.253710 0.978820 0.561024 Br
0.246377 0.035679 0.959623 Br
0.748055 0.051961 0.468301 Br
0.478233 1.043694 0.239700 Br
0.952238 0.975795 0.754322 Br
0.745924 0.550027 0.047938 Br
0.253711 0.521201 0.561023 Br
0.565203 0.479134 0.744734 Br
0.027617 0.448599 0.255200 Br
0.471737 0.749999 0.235292 Cs
