Cs64 Pb64 Br191
1.0
16.840035 0.000000 16.155961
0.000000 23.527616 0.000000
-16.840035 0.000000 16.155961
Cs Pb Br Cs Pb Br
56 56 168 8 8 23
Selective dynamics
direct
0.885775 0.874935 0.353734 F F F
0.135828 0.875161 0.603844 F F F
0.886355 0.374889 0.353966 F F F
0.136121 0.374827 0.603493 F F F
0.886133 0.875065 0.853656 F F F
0.135735 0.875088 0.103336 F F F
0.385858 0.875309 0.353690 F F F
0.636021 0.875363 0.603790 F F F
0.885876 0.374951 0.853655 F F F
0.136123 0.374834 0.104495 F F F
0.385930 0.875128 0.853535 F F F
0.635963 0.875101 0.103646 F F F
0.385473 0.373951 0.853193 F F F
0.638417 0.373969 0.102165 F F F
0.103612 0.124946 0.385997 F F F
0.353463 0.124751 0.636026 F F F
0.102584 0.625233 0.385990 F F F
0.103385 0.124924 0.885932 F F F
0.353784 0.124677 0.135625 F F F
0.603200 0.124871 0.385876 F F F
0.853875 0.124833 0.636345 F F F
0.103479 0.625090 0.885970 F F F
0.353883 0.625273 0.136004 F F F
0.853296 0.625074 0.635664 F F F
0.603665 0.124943 0.885999 F F F
0.853679 0.124837 0.135900 F F F
0.605893 0.625742 0.886129 F F F
0.853185 0.625223 0.136698 F F F
0.896553 0.875105 0.113979 F F F
0.146044 0.875171 0.363840 F F F
0.896651 0.374892 0.113967 F F F
0.146043 0.374550 0.364230 F F F
0.896999 0.875211 0.614314 F F F
0.146109 0.875090 0.863961 F F F
0.396274 0.875186 0.113919 F F F
0.646281 0.875760 0.363754 F F F
0.896860 0.374768 0.614097 F F F
0.146254 0.374856 0.863824 F F F
0.392772 0.374592 0.113256 F F F
0.396627 0.875149 0.614340 F F F
0.646267 0.875116 0.864035 F F F
0.646930 0.374620 0.864021 F F F
0.113579 0.124672 0.146134 F F F
0.363248 0.123871 0.396710 F F F
0.113827 0.624941 0.146059 F F F
0.113926 0.124813 0.646436 F F F
0.363906 0.124840 0.896418 F F F
0.614204 0.124955 0.146375 F F F
0.864230 0.124862 0.396334 F F F
0.113729 0.625024 0.646309 F F F
0.362533 0.625937 0.896621 F F F
0.613945 0.627613 0.146795 F F F
0.864573 0.625107 0.396277 F F F
0.614056 0.124943 0.646468 F F F
0.864176 0.124855 0.896526 F F F
0.864020 0.625152 0.896220 F F F
0.750497 0.750935 0.249579 F F F
0.000045 0.750352 0.500116 F F F
0.750230 0.249713 0.249887 F F F
0.000028 0.249677 0.500075 F F F
0.750147 0.750463 0.750066 F F F
0.999947 0.749993 0.999982 F F F
0.249626 0.750272 0.249658 F F F
0.500108 0.750537 0.499959 F F F
0.750262 0.249523 0.750248 F F F
0.999979 0.249969 0.999921 F F F
0.249799 0.750273 0.750124 F F F
0.499897 0.750092 0.999694 F F F
0.249835 0.249583 0.750197 F F F
0.499972 0.249973 0.000118 F F F
0.000154 0.750157 0.249991 F F F
0.249610 0.750588 0.500311 F F F
0.999802 0.249753 0.249882 F F F
0.999966 0.749960 0.750029 F F F
0.249813 0.750364 0.999977 F F F
0.499510 0.750568 0.249789 F F F
0.750888 0.751661 0.500809 F F F
0.999953 0.249914 0.750025 F F F
0.249695 0.249566 0.999668 F F F
0.750254 0.249237 0.500000 F F F
0.499972 0.750166 0.750052 F F F
0.750270 0.750409 0.999966 F F F
0.499993 0.250055 0.750008 F F F
0.750248 0.249598 0.999895 F F F
0.999954 0.999992 0.250003 F F F
0.249861 0.999540 0.500152 F F F
0.000056 0.499900 0.249994 F F F
0.000008 0.999964 0.750047 F F F
0.249878 0.999855 0.999931 F F F
0.499946 0.000262 0.249923 F F F
0.750088 0.000509 0.500055 F F F
0.999937 0.500076 0.750014 F F F
0.249668 0.500159 0.999761 F F F
0.750352 0.499235 0.500276 F F F
0.499981 0.000233 0.750026 F F F
0.750059 0.999986 0.999996 F F F
0.499517 0.500394 0.750927 F F F
0.750578 0.500187 0.000158 F F F
0.750140 0.000304 0.249975 F F F
0.999987 0.000007 0.500009 F F F
0.750289 0.499811 0.249786 F F F
0.999975 0.499882 0.500115 F F F
0.750076 0.999916 0.750068 F F F
0.999962 0.999955 0.999970 F F F
0.249815 0.999592 0.249816 F F F
0.500026 0.000400 0.500102 F F F
0.750214 0.500048 0.749976 F F F
0.000017 0.499937 0.999907 F F F
0.249920 0.999905 0.750052 F F F
0.500008 0.000065 0.999984 F F F
0.249727 0.499913 0.750161 F F F
0.499753 0.500099 0.996710 F F F
0.984017 0.125020 0.230629 F F F
0.233576 0.124297 0.481862 F F F
0.984359 0.624835 0.230990 F F F
0.232875 0.625081 0.480709 F F F
0.984426 0.125013 0.730764 F F F
0.234117 0.124898 0.980444 F F F
0.484649 0.126009 0.230675 F F F
0.733702 0.125190 0.479699 F F F
0.984048 0.624915 0.730280 F F F
0.233796 0.625016 0.981214 F F F
0.484054 0.623072 0.234998 F F F
0.484336 0.125539 0.730315 F F F
0.734148 0.125039 0.980517 F F F
0.734768 0.624985 0.981288 F F F
0.230235 0.874454 0.233951 F F F
0.480911 0.874823 0.484344 F F F
0.232912 0.374607 0.236347 F F F
0.230543 0.874812 0.734307 F F F
0.480673 0.874767 0.984331 F F F
0.730910 0.875440 0.234207 F F F
0.980490 0.875010 0.484079 F F F
0.231405 0.374934 0.733994 F F F
0.479368 0.375691 0.984589 F F F
0.730472 0.375390 0.233481 F F F
0.981308 0.375015 0.484257 F F F
0.730191 0.875031 0.734286 F F F
0.980701 0.874894 0.984322 F F F
0.980447 0.375086 0.984209 F F F
0.769453 0.125442 0.265814 F F F
0.019542 0.124977 0.515760 F F F
0.766483 0.625253 0.267350 F F F
0.018590 0.624940 0.515777 F F F
0.769520 0.124885 0.766034 F F F
0.019078 0.125033 0.015588 F F F
0.269855 0.124210 0.265063 F F F
0.518934 0.126161 0.515896 F F F
0.768747 0.624983 0.765362 F F F
0.019290 0.624864 0.015621 F F F
0.269562 0.124864 0.765769 F F F
0.519376 0.125478 0.016118 F F F
0.268714 0.624808 0.766290 F F F
0.520005 0.624161 0.015478 F F F
0.015421 0.874925 0.269531 F F F
0.266227 0.874544 0.520217 F F F
0.015667 0.375031 0.269466 F F F
0.015638 0.874891 0.769120 F F F
0.265814 0.874929 0.019649 F F F
0.515116 0.874874 0.269114 F F F
0.766411 0.875741 0.520244 F F F
0.015424 0.375107 0.769186 F F F
0.264471 0.375043 0.018493 F F F
0.766492 0.374735 0.518523 F F F
0.515526 0.874809 0.768850 F F F
0.765743 0.875027 0.019719 F F F
0.516055 0.375975 0.769521 F F F
0.766781 0.375084 0.018260 F F F
0.873866 0.982050 0.224579 F F F
0.123998 0.981841 0.474565 F F F
0.873656 0.482348 0.224658 F F F
0.124463 0.482238 0.474266 F F F
0.873873 0.982033 0.724587 F F F
0.123977 0.982015 0.974530 F F F
0.374028 0.982019 0.224547 F F F
0.623839 0.982138 0.474640 F F F
0.873615 0.482199 0.724355 F F F
0.124014 0.482030 0.974618 F F F
0.376294 0.481102 0.228411 F F F
0.374017 0.982079 0.724552 F F F
0.623863 0.982023 0.974588 F F F
0.623479 0.481744 0.974536 F F F
0.974547 0.017941 0.373956 F F F
0.224520 0.017820 0.623986 F F F
0.974592 0.517837 0.373965 F F F
0.224775 0.517727 0.623670 F F F
0.974531 0.017879 0.873961 F F F
0.224500 0.017940 0.123981 F F F
0.474514 0.017880 0.373948 F F F
0.724487 0.018177 0.623919 F F F
0.974496 0.517989 0.873950 F F F
0.225366 0.517714 0.124339 F F F
0.474560 0.017987 0.873948 F F F
0.724468 0.018029 0.123998 F F F
0.474440 0.518246 0.873325 F F F
0.723034 0.518497 0.124223 F F F
0.025521 0.767886 0.126111 F F F
0.275609 0.767977 0.376127 F F F
0.025425 0.268006 0.126082 F F F
0.025583 0.767955 0.626012 F F F
0.275544 0.767983 0.876085 F F F
0.525247 0.767576 0.125935 F F F
0.774209 0.767321 0.376241 F F F
0.025511 0.267961 0.626008 F F F
0.275427 0.267834 0.876147 F F F
0.524752 0.271099 0.126523 F F F
0.775838 0.267792 0.376042 F F F
0.525737 0.767466 0.625819 F F F
0.775451 0.767981 0.876174 F F F
0.775483 0.267781 0.876050 F F F
0.125937 0.231936 0.275142 F F F
0.375954 0.231971 0.525285 F F F
0.126196 0.731827 0.275562 F F F
0.126115 0.232104 0.775540 F F F
0.376056 0.232183 0.025528 F F F
0.625886 0.232114 0.275554 F F F
0.875814 0.231860 0.525575 F F F
0.126068 0.732004 0.775458 F F F
0.376116 0.731876 0.025458 F F F
0.876220 0.732697 0.525717 F F F
0.625933 0.232119 0.775287 F F F
0.875939 0.231971 0.025555 F F F
0.625897 0.732022 0.775272 F F F
0.875992 0.731923 0.025696 F F F
0.874070 0.767853 0.224430 F F F
0.124195 0.768151 0.474467 F F F
0.873778 0.268092 0.224504 F F F
0.123848 0.267799 0.474721 F F F
0.873850 0.767953 0.724454 F F F
0.124006 0.767981 0.974522 F F F
0.373951 0.767945 0.224467 F F F
0.624163 0.768482 0.474628 F F F
0.873897 0.267876 0.724476 F F F
0.123935 0.267986 0.974508 F F F
0.373933 0.267193 0.223934 F F F
0.373978 0.767835 0.724497 F F F
0.623875 0.767888 0.974600 F F F
0.623827 0.268145 0.974656 F F F
0.974558 0.232040 0.373946 F F F
0.224445 0.232122 0.624302 F F F
0.974502 0.732163 0.373971 F F F
0.224384 0.731965 0.623925 F F F
0.974457 0.232081 0.873948 F F F
0.224125 0.231917 0.123803 F F F
0.473542 0.230892 0.373874 F F F
0.724542 0.231904 0.623877 F F F
0.974515 0.731999 0.873944 F F F
0.224576 0.731833 0.124060 F F F
0.474554 0.232211 0.874104 F F F
0.724423 0.232093 0.123998 F F F
0.474566 0.731464 0.873776 F F F
0.724755 0.732187 0.124085 F F F
0.126085 0.017979 0.275463 F F F
0.376134 0.017861 0.525507 F F F
0.126679 0.517582 0.275941 F F F
0.126081 0.017929 0.775472 F F F
0.376117 0.017876 0.025372 F F F
0.625902 0.017952 0.275475 F F F
0.875985 0.018179 0.525448 F F F
0.126157 0.517821 0.775430 F F F
0.376560 0.517975 0.025251 F F F
0.875608 0.517132 0.525485 F F F
0.625934 0.018013 0.775434 F F F
0.875984 0.017910 0.025483 F F F
0.625076 0.518154 0.774676 F F F
0.875766 0.518167 0.025827 F F F
0.025417 0.982033 0.126091 F F F
0.275345 0.981891 0.376076 F F F
0.025531 0.482010 0.126151 F F F
0.025438 0.982065 0.626019 F F F
0.275480 0.981944 0.876085 F F F
0.525414 0.982119 0.126121 F F F
0.775373 0.981971 0.376070 F F F
0.025549 0.481980 0.625961 F F F
0.275838 0.482092 0.875998 F F F
0.525689 0.481191 0.128940 F F F
0.775501 0.482351 0.376056 F F F
0.525452 0.982189 0.625953 F F F
0.775405 0.981923 0.876070 F F F
0.775183 0.482371 0.876168 F F F
0.378517 0.366397 0.350957 F F F
0.639026 0.372414 0.604258 F F F
0.618012 0.632375 0.386075 F F F
0.351528 0.625859 0.636792 F F F
0.392786 0.373127 0.613082 F F F
0.650308 0.372877 0.364593 F F F
0.614489 0.626389 0.645549 F F F
0.360601 0.630142 0.396971 F F F
0.249323 0.248384 0.249215 F F F
0.499714 0.250385 0.499738 F F F
0.500209 0.250009 0.250120 F F F
0.249418 0.248837 0.500518 F F F
0.503125 0.497448 0.244809 F F F
0.249521 0.500459 0.499787 F F F
0.249971 0.500318 0.250300 F F F
0.500695 0.498799 0.505106 F F F
0.484180 0.624352 0.728695 F F F
0.738991 0.625221 0.485947 F F F
0.731362 0.374920 0.735073 F F F
0.475566 0.376816 0.480407 F F F
0.270397 0.624774 0.265589 F F F
0.522804 0.623604 0.508605 F F F
0.514608 0.376180 0.278084 F F F
0.264984 0.374962 0.515706 F F F
0.374329 0.481805 0.724071 F F F
0.722912 0.516395 0.623747 F F F
0.524175 0.270340 0.625745 F F F
0.272072 0.262154 0.376068 F F F
0.625918 0.735021 0.272905 F F F
0.376395 0.731414 0.525301 F F F
0.374031 0.267884 0.724784 F F F
0.623611 0.268221 0.474891 F F F
0.475665 0.731460 0.373844 F F F
0.724442 0.732733 0.624105 F F F
0.625609 0.518279 0.278800 F F F
0.377025 0.521449 0.524440 F F F
0.526160 0.481062 0.622068 F F F
0.280040 0.484487 0.376244 F F F
0.622245 0.482265 0.471774 T T T