Cs4 Pb4 Br12                            
   1.0000000000000000     
     8.3089510077870798    0.0000000000000000    0.0000000000000000
     0.0000000000000000   12.3519981738715945    0.0000000000000000
     0.0000000000000000    0.0000000000000000    7.9408418496393596
   Cs   Pb   Br
     4     4    12
Direct
  0.0523040553326339  0.2500000000000000  0.4845148305875000
  0.4476959446673732  0.7500000000000000  0.9845148305875000
  0.5523040553326268  0.2500000000000000  0.0154851694125000
  0.9476959446673732  0.7500000000000000  0.5154851694125000
  0.0000000000000000  0.0000000000000000  0.0000000000000000
  0.5000000000000000  0.0000000000000000  0.5000000000000000
  0.5000000000000000  0.5000000000000000  0.5000000000000000
  0.0000000000000000  0.5000000000000000  0.0000000000000000
  0.5007615122454254  0.7500000000000000  0.4675517874718622
  0.9992384877545746  0.2500000000000000  0.9675517874718622
  0.0007615122454254  0.7500000000000000  0.0324482125281378
  0.4992384877545746  0.2500000000000000  0.5324482125281378
  0.3133485620495406  0.4787425522176036  0.1814046825215740
  0.1866514379504665  0.5212574477823964  0.6814046825215740
  0.8133485620495335  0.0212574477823964  0.3185953174784260
  0.6866514379504665  0.9787425522176036  0.8185953174784260
  0.3133485620495406  0.0212574477823964  0.1814046825215740
  0.1866514379504665  0.9787425522176036  0.6814046825215740
  0.6866514379504665  0.5212574477823964  0.8185953174784260
  0.8133485620495335  0.4787425522176036  0.3185953174784260

  0.00000000E+00  0.00000000E+00  0.00000000E+00
  0.00000000E+00  0.00000000E+00  0.00000000E+00
  0.00000000E+00  0.00000000E+00  0.00000000E+00
  0.00000000E+00  0.00000000E+00  0.00000000E+00
  0.00000000E+00  0.00000000E+00  0.00000000E+00
  0.00000000E+00  0.00000000E+00  0.00000000E+00
  0.00000000E+00  0.00000000E+00  0.00000000E+00
  0.00000000E+00  0.00000000E+00  0.00000000E+00
  0.00000000E+00  0.00000000E+00  0.00000000E+00
  0.00000000E+00  0.00000000E+00  0.00000000E+00
  0.00000000E+00  0.00000000E+00  0.00000000E+00
  0.00000000E+00  0.00000000E+00  0.00000000E+00
  0.00000000E+00  0.00000000E+00  0.00000000E+00
  0.00000000E+00  0.00000000E+00  0.00000000E+00
  0.00000000E+00  0.00000000E+00  0.00000000E+00
  0.00000000E+00  0.00000000E+00  0.00000000E+00
  0.00000000E+00  0.00000000E+00  0.00000000E+00
  0.00000000E+00  0.00000000E+00  0.00000000E+00
  0.00000000E+00  0.00000000E+00  0.00000000E+00
  0.00000000E+00  0.00000000E+00  0.00000000E+00
