Cs64 Pb64 Br191
1.0
16.840035 0.000000 16.155961
0.000000 23.527616 0.000000
-16.840035 0.000000 16.155961
Cs Pb Br Cs Pb Br
56 56 168 8 8 23
direct
0.885871 0.875064 0.353486 Cs
0.135652 0.875019 0.603742 Cs
0.885416 0.375633 0.352864 Cs
0.134932 0.374985 0.606631 Cs
0.886350 0.875183 0.853855 Cs
0.135958 0.875129 0.103526 Cs
0.385764 0.875599 0.353083 Cs
0.636492 0.875411 0.603568 Cs
0.885782 0.374602 0.853333 Cs
0.136152 0.374861 0.103978 Cs
0.385978 0.874965 0.853617 Cs
0.636035 0.875083 0.103838 Cs
0.386845 0.374351 0.850045 Cs
0.638119 0.374448 0.103068 Cs
0.102550 0.124835 0.385679 Cs
0.354007 0.124518 0.636404 Cs
0.102450 0.625781 0.386339 Cs
0.103313 0.124749 0.886185 Cs
0.353321 0.124841 0.135841 Cs
0.603357 0.124841 0.385715 Cs
0.856305 0.123732 0.636280 Cs
0.103403 0.625038 0.885777 Cs
0.353424 0.625374 0.135882 Cs
0.860582 0.627853 0.638535 Cs
0.603880 0.125647 0.885194 Cs
0.853943 0.124788 0.136275 Cs
0.607371 0.624852 0.885603 Cs
0.853352 0.625230 0.136539 Cs
0.896582 0.875170 0.114089 Cs
0.146372 0.875157 0.363840 Cs
0.896447 0.374975 0.113976 Cs
0.147032 0.374940 0.364327 Cs
0.895855 0.875022 0.613636 Cs
0.146713 0.875130 0.864311 Cs
0.396340 0.875433 0.113374 Cs
0.646672 0.875571 0.363833 Cs
0.895457 0.374684 0.614239 Cs
0.147876 0.374876 0.863897 Cs
0.395853 0.374612 0.112856 Cs
0.396278 0.875204 0.614151 Cs
0.646407 0.874997 0.864219 Cs
0.647259 0.375058 0.863186 Cs
0.113748 0.124937 0.146348 Cs
0.363591 0.124666 0.396225 Cs
0.113779 0.625133 0.146052 Cs
0.114305 0.125043 0.646062 Cs
0.364135 0.124911 0.896431 Cs
0.613958 0.124827 0.145907 Cs
0.864260 0.124882 0.396377 Cs
0.112692 0.625662 0.646595 Cs
0.364060 0.624673 0.897408 Cs
0.614468 0.625882 0.145329 Cs
0.860881 0.625440 0.396240 Cs
0.612782 0.122300 0.645875 Cs
0.864757 0.124586 0.899324 Cs
0.865512 0.625358 0.899761 Cs
0.750501 0.750742 0.249729 Pb
0.999745 0.750148 0.499626 Pb
0.750311 0.249669 0.249867 Pb
0.999807 0.249766 0.499875 Pb
0.750479 0.750335 0.750610 Pb
0.000088 0.750274 0.000101 Pb
0.249704 0.750391 0.249855 Pb
0.499326 0.751404 0.500001 Pb
0.753634 0.247441 0.750771 Pb
0.000080 0.250181 -0.000023 Pb
0.249784 0.750379 0.750294 Pb
0.499972 0.749882 0.999533 Pb
0.249601 0.248905 0.750772 Pb
0.500068 0.250172 0.000192 Pb
0.000074 0.750113 0.250019 Pb
0.249844 0.750649 0.499872 Pb
0.000100 0.250266 0.250035 Pb
0.000275 0.750782 0.750471 Pb
0.249855 0.750093 -0.000001 Pb
0.499304 0.751695 0.249062 Pb
0.749800 0.749699 0.499747 Pb
0.000517 0.249622 0.750331 Pb
0.249874 0.249763 1.000043 Pb
0.750049 0.249829 0.500381 Pb
0.500223 0.749495 0.749733 Pb
0.750179 0.750487 0.000184 Pb
0.499982 0.248772 0.750613 Pb
0.750168 0.249448 0.000086 Pb
0.000020 0.000027 0.249975 Pb
0.249904 0.999791 0.499968 Pb
0.000094 0.500099 0.249899 Pb
0.000168 0.999796 0.750169 Pb
0.249958 0.000048 0.999974 Pb
0.499900 0.000480 0.249811 Pb
0.749936 0.000329 0.499864 Pb
0.000617 0.499431 0.750744 Pb
0.249742 0.499885 0.999924 Pb
0.748203 0.500209 0.504969 Pb
0.500036 0.999264 0.750244 Pb
0.749961 0.999853 1.000070 Pb
0.500289 0.501846 0.748106 Pb
0.750455 0.499896 0.000714 Pb
0.750095 0.000295 0.249942 Pb
1.000046 0.999726 0.499937 Pb
0.749902 0.499800 0.250572 Pb
0.999124 0.499621 0.499047 Pb
0.750284 0.999450 0.750212 Pb
0.000050 0.000002 0.000068 Pb
0.249887 0.000151 0.249934 Pb
0.499822 0.000368 0.499835 Pb
0.753268 0.502694 0.752154 Pb
0.000037 0.499770 -0.000006 Pb
0.249877 0.999643 0.750039 Pb
0.500060 0.999977 0.999954 Pb
0.250295 0.500406 0.750318 Pb
0.500218 0.499499 0.999753 Pb
0.984495 0.125298 0.231147 Br
0.232803 0.124505 0.479611 Br
0.984475 0.624975 0.230447 Br
0.235299 0.624945 0.479736 Br
0.985645 0.124811 0.731044 Br
0.234286 0.125058 0.980241 Br
0.484260 0.125888 0.229937 Br
0.733922 0.125731 0.479066 Br
0.987026 0.624947 0.734457 Br
0.234195 0.624853 0.980524 Br
0.485164 0.625776 0.230582 Br
0.484588 0.124406 0.732174 Br
0.733433 0.124851 0.980981 Br
0.734795 0.624818 0.982863 Br
0.230428 0.875237 0.234271 Br
0.479574 0.876323 0.483935 Br
0.231484 0.375522 0.235099 Br
0.230422 0.874642 0.734098 Br
0.480869 0.874645 0.983652 Br
0.731354 0.875408 0.234211 Br
0.980259 0.874585 0.484181 Br
0.234445 0.374814 0.733626 Br
0.478994 0.375416 0.982145 Br
0.730501 0.374960 0.233929 Br
0.978929 0.375169 0.483996 Br
0.730363 0.874806 0.734612 Br
0.980736 0.875082 0.984556 Br
0.980164 0.375073 0.984228 Br
0.769807 0.125405 0.266125 Br
0.018513 0.124971 0.515898 Br
0.767442 0.624945 0.266001 Br
0.016819 0.624200 0.516858 Br
0.772815 0.123839 0.767617 Br
0.018920 0.125154 0.015728 Br
0.269545 0.125276 0.265586 Br
0.519251 0.126401 0.514744 Br
0.774070 0.626127 0.769018 Br
0.018896 0.624931 0.015236 Br
0.269313 0.124540 0.765864 Br
0.519570 0.125310 0.014868 Br
0.269189 0.624867 0.767636 Br
0.520336 0.624248 0.013979 Br
0.015640 0.875000 0.269669 Br
0.265573 0.874812 0.519901 Br
0.016053 0.375349 0.270526 Br
0.016553 0.875113 0.770148 Br
0.265580 0.874956 0.019258 Br
0.515789 0.875896 0.268999 Br
0.765273 0.874547 0.517861 Br
0.016851 0.374687 0.769805 Br
0.265166 0.375050 0.019366 Br
0.758255 0.375780 0.528685 Br
0.515732 0.873773 0.769496 Br
0.765792 0.875008 0.020043 Br
0.518888 0.375940 0.761165 Br
0.766616 0.374680 0.018148 Br
0.873900 0.982188 0.224572 Br
0.123858 0.981874 0.474594 Br
0.873867 0.482085 0.225051 Br
0.120401 0.483108 0.474887 Br
0.873940 0.981586 0.724490 Br
0.123927 0.982146 0.974580 Br
0.373948 0.982147 0.224407 Br
0.623846 0.982226 0.474610 Br
0.876445 0.482089 0.725786 Br
0.124052 0.481934 0.974400 Br
0.374175 0.482193 0.224345 Br
0.374058 0.981978 0.724602 Br
0.623857 0.982058 0.974505 Br
0.623851 0.481599 0.974179 Br
0.974500 0.017828 0.373986 Br
0.224630 0.017994 0.623890 Br
0.973173 0.519105 0.373940 Br
0.221579 0.517845 0.623824 Br
0.974577 0.017869 0.873930 Br
0.224483 0.018048 0.123882 Br
0.474526 0.018144 0.373863 Br
0.724925 0.017828 0.623837 Br
0.974629 0.517616 0.874114 Br
0.224728 0.517945 0.123970 Br
0.474598 0.017741 0.873821 Br
0.724543 0.018025 0.123965 Br
0.478521 0.517744 0.864915 Br
0.724354 0.517520 0.125522 Br
0.025621 0.767927 0.126301 Br
0.275715 0.768013 0.376202 Br
0.025437 0.268111 0.126194 Br
0.024950 0.767666 0.626025 Br
0.275658 0.767936 0.876045 Br
0.525137 0.768023 0.125301 Br
0.775213 0.767819 0.375851 Br
0.025221 0.267797 0.626087 Br
0.275860 0.268252 0.876034 Br
0.526089 0.268982 0.126099 Br
0.774157 0.269829 0.376687 Br
0.525648 0.768536 0.625699 Br
0.775494 0.768351 0.876256 Br
0.776259 0.265907 0.876398 Br
0.126163 0.232221 0.275599 Br
0.374433 0.230006 0.523840 Br
0.126238 0.731948 0.275648 Br
0.126480 0.231972 0.775851 Br
0.376251 0.232048 0.025570 Br
0.626048 0.232230 0.275648 Br
0.875392 0.232349 0.525495 Br
0.126373 0.732306 0.775625 Br
0.376202 0.731854 0.025181 Br
0.875707 0.731672 0.524484 Br
0.627135 0.233589 0.770622 Br
0.876027 0.232024 0.025873 Br
0.626335 0.731482 0.774377 Br
0.876142 0.732352 0.025942 Br
0.874142 0.767929 0.224388 Br
0.123762 0.767705 0.474291 Br
0.873832 0.268151 0.224686 Br
0.123083 0.267731 0.474409 Br
0.874311 0.768690 0.724910 Br
0.123983 0.767910 0.974530 Br
0.373719 0.768433 0.223923 Br
0.623616 0.768104 0.474576 Br
0.875523 0.266608 0.722967 Br
0.123913 0.268039 0.974414 Br
0.374002 0.268024 0.223995 Br
0.374078 0.767865 0.724598 Br
0.623958 0.767820 0.974594 Br
0.623923 0.268402 0.974017 Br
0.974214 0.232214 0.373924 Br
0.225703 0.232751 0.623799 Br
0.973708 0.731122 0.373958 Br
0.223935 0.732037 0.623860 Br
0.974276 0.232018 0.873926 Br
0.224365 0.232052 0.123785 Br
0.474327 0.232293 0.373399 Br
0.727650 0.225257 0.624370 Br
0.974621 0.732536 0.874068 Br
0.224496 0.732039 0.123937 Br
0.474818 0.232358 0.874345 Br
0.724544 0.232022 0.124202 Br
0.475714 0.729157 0.873156 Br
0.724705 0.732339 0.123857 Br
0.126138 0.017987 0.275473 Br
0.376078 0.018118 0.525447 Br
0.126401 0.518189 0.276342 Br
0.126196 0.017907 0.775437 Br
0.376160 0.017932 0.025384 Br
0.626078 0.018058 0.275371 Br
0.875986 0.017658 0.525171 Br
0.128130 0.517381 0.775299 Br
0.376526 0.518198 0.025129 Br
0.867540 0.517635 0.521823 Br
0.626124 0.017980 0.775409 Br
0.876067 0.017851 0.025689 Br
0.626977 0.518373 0.770837 Br
0.876081 0.517729 0.026491 Br
0.025498 0.982123 0.126153 Br
0.275355 0.982060 0.376124 Br
0.025596 0.481956 0.126405 Br
0.025286 0.982031 0.626068 Br
0.275540 0.981964 0.876067 Br
0.525467 0.982140 0.126057 Br
0.775427 0.982161 0.376128 Br
0.022435 0.482140 0.625484 Br
0.277108 0.481548 0.875762 Br
0.526181 0.481623 0.121028 Br
0.768505 0.478552 0.379301 Br
0.525363 0.982030 0.626066 Br
0.775415 0.981725 0.876128 Br
0.776804 0.483432 0.877887 Br
0.384954 0.374169 0.349991 Cs
0.637819 0.355520 0.624623 Cs
0.600632 0.632793 0.380473 Cs
0.349479 0.628772 0.637511 Cs
0.382812 0.366863 0.613669 Cs
0.646155 0.371165 0.361380 Cs
0.617203 0.628836 0.638984 Cs
0.365072 0.626464 0.395437 Cs
0.249765 0.249718 0.249838 Pb
0.498786 0.249983 0.498787 Pb
0.499846 0.249993 0.249356 Pb
0.248703 0.248623 0.499167 Pb
0.500288 0.500331 0.246530 Pb
0.247065 0.500661 0.500384 Pb
0.249858 0.500578 0.250156 Pb
0.489052 0.500588 0.496590 Pb
0.485961 0.624150 0.721351 Br
0.727804 0.623492 0.478779 Br
0.741210 0.375035 0.740727 Br
0.472666 0.376071 0.485600 Br
0.270315 0.625427 0.265705 Br
0.513979 0.625824 0.509523 Br
0.516162 0.376060 0.268257 Br
0.259270 0.375149 0.515701 Br
0.376032 0.481693 0.721424 Br
0.481742 0.517974 0.370060 Br
0.737947 0.528136 0.627352 Br
0.516844 0.263212 0.625722 Br
0.275376 0.267803 0.375874 Br
0.625958 0.735723 0.272176 Br
0.375824 0.732365 0.525446 Br
0.374135 0.264668 0.727500 Br
0.623052 0.270395 0.477732 Br
0.473966 0.735065 0.373277 Br
0.727627 0.734210 0.623780 Br
0.625795 0.517993 0.276002 Br
0.372913 0.513759 0.538092 Br
0.277769 0.484144 0.377057 Br
0.586382 0.487952 0.572989 Br
