Cs64 Pb64 Br191
1.0
16.840035 0.000000 16.155961
0.000000 23.527616 0.000000
-16.840035 0.000000 16.155961
Cs Pb Br Cs Pb Br
56 56 168 8 8 23
direct
0.885975 0.874794 0.352820 Cs
0.136630 0.874994 0.606524 Cs
0.888783 0.371929 0.353403 Cs
0.136195 0.375068 0.605644 Cs
0.886543 0.875038 0.853114 Cs
0.136178 0.874973 0.102685 Cs
0.385780 0.877428 0.353237 Cs
0.636900 0.875712 0.606192 Cs
0.885291 0.375663 0.852632 Cs
0.137991 0.375074 0.105202 Cs
0.384660 0.875200 0.850355 Cs
0.636443 0.874182 0.107233 Cs
0.389908 0.375564 0.852936 Cs
0.633087 0.375686 0.100078 Cs
0.104184 0.125170 0.385583 Cs
0.353972 0.125690 0.635395 Cs
0.103418 0.623993 0.388478 Cs
0.103420 0.125034 0.886093 Cs
0.350877 0.124844 0.135011 Cs
0.602969 0.121077 0.388920 Cs
0.854526 0.124480 0.638061 Cs
0.103540 0.624940 0.885519 Cs
0.369376 0.624816 0.140099 Cs
0.854031 0.624878 0.633925 Cs
0.603764 0.125187 0.885513 Cs
0.854578 0.125050 0.135195 Cs
0.603052 0.623420 0.885647 Cs
0.849917 0.625386 0.137184 Cs
0.896243 0.874605 0.114525 Cs
0.146150 0.875160 0.364147 Cs
0.897953 0.375603 0.113221 Cs
0.146160 0.375302 0.361779 Cs
0.899677 0.875123 0.614965 Cs
0.147059 0.874829 0.864127 Cs
0.393393 0.875550 0.112288 Cs
0.647908 0.879342 0.360894 Cs
0.887362 0.373146 0.611320 Cs
0.146842 0.375133 0.864643 Cs
0.397509 0.375317 0.117176 Cs
0.395964 0.875206 0.614869 Cs
0.646589 0.874662 0.864726 Cs
0.645309 0.376116 0.863770 Cs
0.113681 0.124769 0.144697 Cs
0.361581 0.123637 0.396927 Cs
0.115193 0.624525 0.143463 Cs
0.113999 0.124811 0.646783 Cs
0.364092 0.125139 0.896914 Cs
0.613696 0.124685 0.143870 Cs
0.865405 0.124534 0.397106 Cs
0.114018 0.624552 0.645690 Cs
0.367458 0.620893 0.896940 Cs
0.614218 0.631584 0.135228 Cs
0.863582 0.625331 0.392242 Cs
0.613668 0.125116 0.644643 Cs
0.864919 0.124843 0.898971 Cs
0.862152 0.625211 0.897039 Cs
0.753132 0.752394 0.249224 Pb
0.999999 0.750036 0.499890 Pb
0.749821 0.249588 0.249741 Pb
1.000163 0.249636 0.500517 Pb
0.750093 0.749701 0.749973 Pb
1.000020 0.749686 0.999804 Pb
0.249965 0.749779 0.249414 Pb
0.500688 0.750894 0.500388 Pb
0.750863 0.248076 0.752189 Pb
1.000085 0.250425 0.999761 Pb
0.250348 0.749304 0.750625 Pb
0.497470 0.752702 0.997219 Pb
0.250368 0.250449 0.750474 Pb
0.499860 0.250096 0.000311 Pb
0.003043 0.749250 0.249788 Pb
0.249676 0.750719 0.500811 Pb
0.999949 0.249686 0.249582 Pb
0.999953 0.749431 0.750028 Pb
0.249976 0.748900 0.999698 Pb
0.499605 0.753193 0.249311 Pb
0.750312 0.752396 0.501245 Pb
0.000228 0.250424 0.750199 Pb
0.250365 0.250695 0.999700 Pb
0.750299 0.247118 0.500772 Pb
0.500059 0.750204 0.749816 Pb
0.750401 0.750977 0.999487 Pb
0.499018 0.249258 0.749978 Pb
0.750065 0.250269 0.000297 Pb
0.000292 0.999882 0.249906 Pb
0.249734 0.999725 0.500400 Pb
0.004686 0.500901 0.249965 Pb
0.000185 0.999947 0.750248 Pb
0.249911 0.000089 0.999679 Pb
0.499501 0.000858 0.249479 Pb
0.750708 0.999410 0.500517 Pb
0.999831 0.499679 0.749938 Pb
0.250652 0.499868 0.000277 Pb
0.748454 0.500844 0.495920 Pb
0.500128 0.999936 0.750130 Pb
0.749900 0.000135 0.999959 Pb
0.500290 0.500452 0.746818 Pb
0.750084 0.499950 0.999748 Pb
0.750979 0.002314 0.249841 Pb
0.000240 0.999656 0.500016 Pb
0.751666 0.496416 0.249812 Pb
1.001159 0.498389 0.499739 Pb
0.750201 -0.000354 0.750311 Pb
0.000037 0.999572 0.999989 Pb
0.249700 0.999565 0.249755 Pb
0.499439 0.998741 0.500256 Pb
0.750331 0.500311 0.747666 Pb
0.999836 0.500081 0.999541 Pb
0.250149 0.000556 0.750168 Pb
0.499885 0.000365 0.999861 Pb
0.250390 0.499636 0.750237 Pb
0.501057 0.499947 0.006446 Pb
0.984843 0.125102 0.230271 Br
0.232991 0.125239 0.482836 Br
0.984114 0.624126 0.228663 Br
0.234179 0.624491 0.482325 Br
0.985183 0.124963 0.731378 Br
0.234387 0.125238 0.981134 Br
0.482572 0.125207 0.226368 Br
0.735519 0.123678 0.480129 Br
0.984147 0.624547 0.728854 Br
0.234537 0.624105 0.978151 Br
0.503949 0.624097 0.244663 Br
0.484362 0.124753 0.730324 Br
0.733894 0.125590 0.981345 Br
0.732039 0.625521 0.984024 Br
0.229863 0.874195 0.233710 Br
0.477495 0.874761 0.485181 Br
0.236110 0.375549 0.234122 Br
0.233169 0.874789 0.735725 Br
0.476614 0.876240 0.981851 Br
0.739336 0.876687 0.233663 Br
0.980752 0.874184 0.483210 Br
0.229680 0.375053 0.735070 Br
0.482119 0.375373 0.987706 Br
0.719071 0.375303 0.237444 Br
0.977648 0.374424 0.485432 Br
0.731355 0.874558 0.735532 Br
0.980178 0.874576 0.984680 Br
0.979685 0.375229 0.983089 Br
0.773617 0.126643 0.265761 Br
0.020103 0.124632 0.515150 Br
0.753307 0.623794 0.267266 Br
0.015412 0.623452 0.516734 Br
0.770982 0.124115 0.768311 Br
0.018202 0.124997 0.015088 Br
0.268384 0.124466 0.265383 Br
0.514092 0.124198 0.517262 Br
0.770791 0.624553 0.763650 Br
0.019840 0.624634 0.014841 Br
0.270831 0.125338 0.765559 Br
0.519359 0.125096 0.014565 Br
0.270739 0.624358 0.766978 Br
0.514017 0.626294 0.012598 Br
0.016006 0.874306 0.268954 Br
0.265202 0.874869 0.521029 Br
0.016368 0.375351 0.267699 Br
0.016243 0.874490 0.768668 Br
0.264369 0.874533 0.017003 Br
0.514960 0.876770 0.269356 Br
0.768601 0.875005 0.522745 Br
0.016413 0.375173 0.770740 Br
0.267240 0.374946 0.021558 Br
0.750255 0.375300 0.516004 Br
0.516430 0.874908 0.769021 Br
0.765097 0.875537 0.020414 Br
0.519424 0.374893 0.761151 Br
0.766108 0.375733 0.020398 Br
0.874356 0.983354 0.223863 Br
0.123784 0.981868 0.474682 Br
0.867918 0.483113 0.226404 Br
0.123425 0.482106 0.478111 Br
0.873997 0.982071 0.724480 Br
0.123830 0.982282 0.974244 Br
0.373924 0.982096 0.224221 Br
0.623903 0.981770 0.475353 Br
0.873932 0.482168 0.721703 Br
0.124187 0.481548 0.976517 Br
0.381927 0.485575 0.224569 Br
0.373995 0.982596 0.724359 Br
0.623769 0.981786 0.974969 Br
0.624602 0.482780 0.976003 Br
0.974779 0.017475 0.373837 Br
0.224439 0.017743 0.623984 Br
0.977129 0.517836 0.373856 Br
0.226040 0.518045 0.623810 Br
0.974538 0.017617 0.873875 Br
0.224299 0.017579 0.123944 Br
0.474226 0.018126 0.373777 Br
0.724672 0.018362 0.623953 Br
0.973642 0.518488 0.873801 Br
0.229081 0.518445 0.125687 Br
0.474652 0.018237 0.873720 Br
0.724738 0.018157 0.124201 Br
0.480240 0.512987 0.872097 Br
0.723152 0.517633 0.124551 Br
0.026772 0.767397 0.126209 Br
0.274635 0.771117 0.376329 Br
0.025750 0.268288 0.126113 Br
0.025731 0.767649 0.625949 Br
0.276288 0.766951 0.876071 Br
0.521220 0.767941 0.124056 Br
0.772418 0.767914 0.376150 Br
0.025184 0.268022 0.625984 Br
0.277103 0.269362 0.876347 Br
0.525785 0.267846 0.126764 Br
0.776708 0.265999 0.376696 Br
0.526974 0.767057 0.625853 Br
0.775883 0.767843 0.875874 Br
0.776125 0.268051 0.877068 Br
0.125471 0.232740 0.274548 Br
0.373673 0.234445 0.523947 Br
0.127837 0.728064 0.276826 Br
0.126687 0.232178 0.775766 Br
0.376299 0.232080 0.025822 Br
0.626388 0.225655 0.276039 Br
0.876044 0.231840 0.526613 Br
0.126258 0.731991 0.775214 Br
0.375384 0.731730 0.025849 Br
0.875968 0.732262 0.523695 Br
0.626268 0.232606 0.774093 Br
0.876174 0.232781 0.025959 Br
0.626234 0.731794 0.776059 Br
0.875857 0.731479 0.025991 Br
0.877141 0.764501 0.224339 Br
0.124248 0.767417 0.474710 Br
0.873137 0.271221 0.224748 Br
0.122720 0.271274 0.474453 Br
0.873913 0.767832 0.724193 Br
0.123486 0.767579 0.974387 Br
0.374130 0.767857 0.224091 Br
0.624257 0.776275 0.475703 Br
0.874315 0.267761 0.724847 Br
0.124005 0.268099 0.974816 Br
0.374192 0.265931 0.225822 Br
0.374007 0.766883 0.723391 Br
0.623314 0.767721 0.976968 Br
0.623951 0.268005 0.973939 Br
0.975054 0.232067 0.373778 Br
0.223653 0.232088 0.624571 Br
0.975338 0.731362 0.373739 Br
0.224312 0.731972 0.623798 Br
0.974417 0.232283 0.873935 Br
0.224050 0.232094 0.123804 Br
0.474851 0.227836 0.373765 Br
0.726860 0.231423 0.625313 Br
0.973905 0.731657 0.873864 Br
0.225194 0.732023 0.124190 Br
0.474114 0.233423 0.874138 Br
0.724282 0.232306 0.124350 Br
0.472797 0.732039 0.872587 Br
0.727892 0.735021 0.123838 Br
0.126339 0.017848 0.275463 Br
0.375816 0.017551 0.525638 Br
0.126734 0.518100 0.272531 Br
0.126262 0.017751 0.775703 Br
0.376055 0.018047 0.025561 Br
0.626485 0.018343 0.274385 Br
0.876202 0.018015 0.525971 Br
0.126174 0.517997 0.774646 Br
0.376674 0.517248 0.027196 Br
0.866433 0.513907 0.522103 Br
0.626307 0.017948 0.775271 Br
0.876116 0.017407 0.025672 Br
0.626460 0.517893 0.772043 Br
0.876300 0.519175 0.026668 Br
0.025805 0.982069 0.126149 Br
0.274849 0.982395 0.376245 Br
0.025766 0.481769 0.126227 Br
0.025861 0.982111 0.626051 Br
0.275729 0.982712 0.876146 Br
0.525430 0.981509 0.126066 Br
0.775959 0.982369 0.376234 Br
0.022696 0.480686 0.625445 Br
0.276785 0.480494 0.876618 Br
0.527307 0.488311 0.130906 Br
0.781494 0.481492 0.374344 Br
0.525446 0.981962 0.625973 Br
0.775675 0.981768 0.876360 Br
0.773753 0.484304 0.874077 Br
0.382256 0.364721 0.357963 Cs
0.632326 0.370874 0.618368 Cs
0.616650 0.650389 0.377679 Cs
0.353161 0.624543 0.636560 Cs
0.403226 0.377111 0.610829 Cs
0.643072 0.357524 0.371286 Cs
0.613009 0.625054 0.645051 Cs
0.360910 0.638522 0.398500 Cs
0.249695 0.249242 0.249243 Pb
0.497731 0.247666 0.499732 Pb
0.500236 0.247460 0.249819 Pb
0.247312 0.249998 0.501028 Pb
0.502725 0.498761 0.275414 Pb
0.252955 0.499294 0.499980 Pb
0.257185 0.500394 0.249808 Pb
0.499676 0.502810 0.485493 Pb
0.484002 0.625190 0.730551 Br
0.735645 0.625480 0.480048 Br
0.735488 0.374238 0.737714 Br
0.494198 0.375863 0.479836 Br
0.275800 0.624980 0.264945 Br
0.529418 0.625824 0.503607 Br
0.513938 0.373661 0.275184 Br
0.267759 0.375553 0.521093 Br
0.374104 0.480860 0.723253 Br
0.434433 0.510522 0.373589 Br
0.721654 0.514635 0.619440 Br
0.522381 0.263982 0.625587 Br
0.270231 0.263663 0.376421 Br
0.627566 0.749768 0.263590 Br
0.376986 0.732332 0.527442 Br
0.374286 0.270451 0.722884 Br
0.623063 0.254612 0.481325 Br
0.475836 0.739139 0.373326 Br
0.724289 0.731775 0.623728 Br
0.381694 0.517874 0.523296 Br
0.526640 0.487222 0.616796 Br
0.269617 0.477042 0.376668 Br
0.593902 0.500771 0.380549 Br
