Cs4 Pb4 Br12                            
   1.0000000000000000     
     8.4330335536926047    0.0000000000000000    0.0000000000000000
     0.0000000000000000   11.8814458624860091    0.0000000000000000
     0.0000000000000000    0.0000000000000000    8.0005931481715855
   Cs   Pb   Br
     4     4    12
Direct
  0.0656640367572692  0.2500000000000000  0.4791067108637606
  0.4343359632427379  0.7500000000000000  0.9791067108637606
  0.5656640367572621  0.2500000000000000  0.0208932891362394
  0.9343359632427379  0.7500000000000000  0.5208932891362394
  0.0000000000000000  0.0000000000000000  0.0000000000000000
  0.5000000000000000  0.0000000000000000  0.5000000000000000
  0.5000000000000000  0.5000000000000000  0.5000000000000000
  0.0000000000000000  0.5000000000000000  0.0000000000000000
  0.5034011852444706  0.7500000000000000  0.4398733959335956
  0.9965988147555294  0.2500000000000000  0.9398733959335956
  0.0034011852444706  0.7500000000000000  0.0601266040664044
  0.4965988147555294  0.2500000000000000  0.5601266040664044
  0.3018502964537859  0.4669802188235153  0.1928230509450586
  0.1981497035462212  0.5330197811764847  0.6928230509450586
  0.8018502964537788  0.0330197811764847  0.3071769490549414
  0.6981497035462212  0.9669802188235153  0.8071769490549414
  0.3018502964537859  0.0330197811764847  0.1928230509450586
  0.1981497035462212  0.9669802188235153  0.6928230509450586
  0.6981497035462212  0.5330197811764847  0.8071769490549414
  0.8018502964537788  0.4669802188235153  0.3071769490549414

  0.00000000E+00  0.00000000E+00  0.00000000E+00
  0.00000000E+00  0.00000000E+00  0.00000000E+00
  0.00000000E+00  0.00000000E+00  0.00000000E+00
  0.00000000E+00  0.00000000E+00  0.00000000E+00
  0.00000000E+00  0.00000000E+00  0.00000000E+00
  0.00000000E+00  0.00000000E+00  0.00000000E+00
  0.00000000E+00  0.00000000E+00  0.00000000E+00
  0.00000000E+00  0.00000000E+00  0.00000000E+00
  0.00000000E+00  0.00000000E+00  0.00000000E+00
  0.00000000E+00  0.00000000E+00  0.00000000E+00
  0.00000000E+00  0.00000000E+00  0.00000000E+00
  0.00000000E+00  0.00000000E+00  0.00000000E+00
  0.00000000E+00  0.00000000E+00  0.00000000E+00
  0.00000000E+00  0.00000000E+00  0.00000000E+00
  0.00000000E+00  0.00000000E+00  0.00000000E+00
  0.00000000E+00  0.00000000E+00  0.00000000E+00
  0.00000000E+00  0.00000000E+00  0.00000000E+00
  0.00000000E+00  0.00000000E+00  0.00000000E+00
  0.00000000E+00  0.00000000E+00  0.00000000E+00
  0.00000000E+00  0.00000000E+00  0.00000000E+00
