Cs4 Pb4 Br12                            
   1.0000000000000000     
     8.4330335536926047    0.0000000000000000    0.0000000000000000
     0.0000000000000000   11.8814458624860091    0.0000000000000000
     0.0000000000000000    0.0000000000000000    8.0005931481715855
   Cs   Pb   Br
     4     4    12
Direct
  0.0656640367572723  0.2500000000000000  0.4791067108637578
  0.4343359632427347  0.7500000000000000  0.9791067108637579
  0.5656640367572653  0.2500000000000000  0.0208932891362421
  0.9343359632427347  0.7500000000000000  0.5208932891362421
 -0.0000000000000000 -0.0000000000000000  0.0000000000000000
  0.5000000000000000 -0.0000000000000000  0.5000000000000000
  0.5000000000000000  0.5000000000000000  0.5000000000000000
 -0.0000000000000000  0.5000000000000000  0.0000000000000000
  0.5034011852444733  0.7500000000000000  0.4398733959335933
  0.9965988147555267  0.2500000000000000  0.9398733959335932
  0.0034011852444733  0.7500000000000000  0.0601266040664068
  0.4965988147555265  0.2500000000000000  0.5601266040664068
  0.3018502964537882  0.4669802188235124  0.1928230509450603
  0.1981497035462190  0.5330197811764872  0.6928230509450606
  0.8018502964537811  0.0330197811764874  0.3071769490549396
  0.6981497035462189  0.9669802188235128  0.8071769490549394
  0.3018502964537882  0.0330197811764874  0.1928230509450603
  0.1981497035462190  0.9669802188235128  0.6928230509450606
  0.6981497035462189  0.5330197811764872  0.8071769490549394
  0.8018502964537811  0.4669802188235124  0.3071769490549396

  0.00000000E+00  0.00000000E+00  0.00000000E+00
  0.00000000E+00  0.00000000E+00  0.00000000E+00
  0.00000000E+00  0.00000000E+00  0.00000000E+00
  0.00000000E+00  0.00000000E+00  0.00000000E+00
  0.00000000E+00  0.00000000E+00  0.00000000E+00
  0.00000000E+00  0.00000000E+00  0.00000000E+00
  0.00000000E+00  0.00000000E+00  0.00000000E+00
  0.00000000E+00  0.00000000E+00  0.00000000E+00
  0.00000000E+00  0.00000000E+00  0.00000000E+00
  0.00000000E+00  0.00000000E+00  0.00000000E+00
  0.00000000E+00  0.00000000E+00  0.00000000E+00
  0.00000000E+00  0.00000000E+00  0.00000000E+00
  0.00000000E+00  0.00000000E+00  0.00000000E+00
  0.00000000E+00  0.00000000E+00  0.00000000E+00
  0.00000000E+00  0.00000000E+00  0.00000000E+00
  0.00000000E+00  0.00000000E+00  0.00000000E+00
  0.00000000E+00  0.00000000E+00  0.00000000E+00
  0.00000000E+00  0.00000000E+00  0.00000000E+00
  0.00000000E+00  0.00000000E+00  0.00000000E+00
  0.00000000E+00  0.00000000E+00  0.00000000E+00
