Cs8 Pb7 Br24
1.0
8.420018 0.000000 8.077981
0.000000 11.763808 0.000000
-8.420018 0.000000 8.077981
Cs Pb Br Pb
8 6 24 1
direct
0.274664 0.261296 0.224689 Cs
0.766805 0.269120 0.692696 Cs
0.710735 0.738122 0.290840 Cs
0.206856 0.731163 0.750529 Cs
0.289267 0.261882 0.709147 Cs
0.793127 0.268851 0.249478 Cs
0.725334 0.738702 0.775310 Cs
0.233195 0.730877 0.307300 Cs
-0.000002 0.000007 -0.000003 Pb
0.500005 -0.000011 0.499997 Pb
0.499998 -0.000002 -0.000004 Pb
-0.000001 0.000001 0.499999 Pb
0.500003 0.500000 0.000001 Pb
-0.000002 0.500000 0.000034 Pb
0.462993 0.751402 0.950443 Br
0.976384 0.751999 0.470422 Br
0.941749 0.248711 0.973683 Br
0.478972 0.247939 0.465948 Br
0.058250 0.751285 0.026318 Br
0.521028 0.752041 0.534050 Br
0.536998 0.248601 0.049547 Br
0.023622 0.248001 0.529578 Br
0.248059 0.452673 0.951337 Br
0.749160 0.479065 0.460745 Br
0.458557 0.534460 0.245968 Br
0.953455 0.533596 0.751186 Br
0.554247 0.043179 0.753101 Br
0.053853 0.036389 0.251090 Br
0.752038 0.948123 0.051390 Br
0.252208 0.972049 0.556779 Br
0.247959 0.051881 0.948596 Br
0.747802 0.027947 0.443229 Br
0.445751 0.956814 0.246896 Br
0.946144 0.963610 0.748904 Br
0.751944 0.547326 0.048656 Br
0.250863 0.520949 0.539273 Br
0.541444 0.465540 0.754027 Br
0.046553 0.466409 0.248819 Br
-0.250018 0.500003 0.500003 Pb
