Cs4 Pb4 Br12                            
   1.0000000000000000     
     8.5042177738574694    0.0000000000000000    0.0000000000000000
     0.0000000000000000   11.8814458624860091    0.0000000000000000
     0.0000000000000000    0.0000000000000000    7.9422813031560366
   Cs   Pb   Br
     4     4    12
Direct
  0.0677759556960424  0.2500000000000000  0.4765149484262849
  0.4322240443039647  0.7500000000000000  0.9765149484262849
  0.5677759556960353  0.2500000000000000  0.0234850515737151
  0.9322240443039647  0.7500000000000000  0.5234850515737151
  0.0000000000000000  0.0000000000000000  0.0000000000000000
  0.5000000000000000  0.0000000000000000  0.5000000000000000
  0.5000000000000000  0.5000000000000000  0.5000000000000000
  0.0000000000000000  0.5000000000000000  0.0000000000000000
  0.5052576122797845  0.7500000000000000  0.4402552262583086
  0.9947423877202155  0.2500000000000000  0.9402552262583086
  0.0052576122797845  0.7500000000000000  0.0597447737416914
  0.4947423877202155  0.2500000000000000  0.5597447737416914
  0.3015103226884506  0.4668328661940393  0.1916069362101496
  0.1984896773115565  0.5331671338059607  0.6916069362101496
  0.8015103226884435  0.0331671338059607  0.3083930637898504
  0.6984896773115565  0.9668328661940393  0.8083930637898504
  0.3015103226884506  0.0331671338059607  0.1916069362101496
  0.1984896773115565  0.9668328661940393  0.6916069362101496
  0.6984896773115565  0.5331671338059607  0.8083930637898504
  0.8015103226884435  0.4668328661940393  0.3083930637898504

  0.00000000E+00  0.00000000E+00  0.00000000E+00
  0.00000000E+00  0.00000000E+00  0.00000000E+00
  0.00000000E+00  0.00000000E+00  0.00000000E+00
  0.00000000E+00  0.00000000E+00  0.00000000E+00
  0.00000000E+00  0.00000000E+00  0.00000000E+00
  0.00000000E+00  0.00000000E+00  0.00000000E+00
  0.00000000E+00  0.00000000E+00  0.00000000E+00
  0.00000000E+00  0.00000000E+00  0.00000000E+00
  0.00000000E+00  0.00000000E+00  0.00000000E+00
  0.00000000E+00  0.00000000E+00  0.00000000E+00
  0.00000000E+00  0.00000000E+00  0.00000000E+00
  0.00000000E+00  0.00000000E+00  0.00000000E+00
  0.00000000E+00  0.00000000E+00  0.00000000E+00
  0.00000000E+00  0.00000000E+00  0.00000000E+00
  0.00000000E+00  0.00000000E+00  0.00000000E+00
  0.00000000E+00  0.00000000E+00  0.00000000E+00
  0.00000000E+00  0.00000000E+00  0.00000000E+00
  0.00000000E+00  0.00000000E+00  0.00000000E+00
  0.00000000E+00  0.00000000E+00  0.00000000E+00
  0.00000000E+00  0.00000000E+00  0.00000000E+00
