Cs64 Pb64 Br191
1.0
16.840035 0.000000 16.155961
0.000000 23.527616 0.000000
-16.840035 0.000000 16.155961
Cs Pb Br Cs Pb Br
56 56 168 8 8 23
direct
0.885960 0.875093 0.353537 Cs
0.135679 0.875057 0.603677 Cs
0.885452 0.375545 0.353328 Cs
0.134822 0.375053 0.604698 Cs
0.886385 0.875209 0.853916 Cs
0.135878 0.875133 0.103546 Cs
0.385787 0.875378 0.353318 Cs
0.636310 0.875463 0.603396 Cs
0.886068 0.374692 0.853697 Cs
0.136087 0.374853 0.103953 Cs
0.385862 0.874980 0.853646 Cs
0.636066 0.875093 0.103790 Cs
0.386185 0.373084 0.851342 Cs
0.638232 0.374009 0.103518 Cs
0.102917 0.124844 0.385811 Cs
0.353760 0.124426 0.636313 Cs
0.101753 0.625368 0.386041 Cs
0.103313 0.124782 0.886169 Cs
0.353494 0.124861 0.135966 Cs
0.603429 0.124861 0.385752 Cs
0.854744 0.124192 0.636243 Cs
0.103341 0.625147 0.885899 Cs
0.353205 0.625366 0.136008 Cs
0.858029 0.626961 0.637875 Cs
0.603807 0.125275 0.885587 Cs
0.853848 0.124873 0.136242 Cs
0.607554 0.625166 0.885911 Cs
0.853479 0.625216 0.136597 Cs
0.896585 0.875144 0.114084 Cs
0.146239 0.875155 0.363816 Cs
0.896697 0.374919 0.114045 Cs
0.146825 0.374916 0.364318 Cs
0.896126 0.875031 0.613788 Cs
0.146454 0.875152 0.864214 Cs
0.396364 0.875243 0.113755 Cs
0.646592 0.875442 0.363885 Cs
0.895860 0.375027 0.614286 Cs
0.147158 0.374803 0.863751 Cs
0.394583 0.374383 0.113225 Cs
0.396369 0.875186 0.614141 Cs
0.646387 0.875094 0.864251 Cs
0.646714 0.374638 0.863627 Cs
0.113759 0.124934 0.146364 Cs
0.363675 0.124676 0.396342 Cs
0.113913 0.625058 0.146256 Cs
0.114118 0.125008 0.646153 Cs
0.364026 0.124845 0.896490 Cs
0.614008 0.124887 0.146296 Cs
0.864192 0.124853 0.396362 Cs
0.112707 0.625501 0.646351 Cs
0.362411 0.625558 0.898095 Cs
0.614463 0.626329 0.146180 Cs
0.861708 0.625063 0.396569 Cs
0.613449 0.123262 0.646151 Cs
0.864450 0.124701 0.897769 Cs
0.864855 0.625321 0.898384 Cs
0.750372 0.750611 0.249813 Pb
0.999797 0.750090 0.499767 Pb
0.750082 0.249896 0.250065 Pb
0.999827 0.249745 0.499892 Pb
0.750436 0.750629 0.750598 Pb
0.000044 0.750179 0.000112 Pb
0.249722 0.750398 0.249863 Pb
0.499497 0.750997 0.500073 Pb
0.752196 0.248389 0.750745 Pb
0.000032 0.250074 0.000017 Pb
0.249721 0.750358 0.750230 Pb
0.499984 0.749800 0.999716 Pb
0.249392 0.249004 0.750542 Pb
0.500093 0.249951 0.000309 Pb
0.000064 0.750113 0.250018 Pb
0.249669 0.750687 0.499881 Pb
-0.000003 0.250130 0.250046 Pb
0.000189 0.750598 0.750324 Pb
0.249779 0.750292 0.000110 Pb
0.499561 0.750958 0.249559 Pb
0.750138 0.750083 0.499756 Pb
0.000157 0.249693 0.750171 Pb
0.249782 0.249619 0.000041 Pb
0.750286 0.249530 0.500182 Pb
0.500148 0.749635 0.749823 Pb
0.750228 0.750475 0.000258 Pb
0.500121 0.248943 0.750448 Pb
0.750207 0.249518 0.000136 Pb
-0.000012 0.000041 0.249994 Pb
0.249851 0.999751 0.499962 Pb
0.000021 0.499934 0.249955 Pb
0.000060 0.999936 0.750086 Pb
0.249930 -0.000010 0.000026 Pb
0.499934 0.000374 0.249877 Pb
0.750038 0.000186 0.499892 Pb
0.000469 0.499619 0.750542 Pb
0.249649 0.499881 0.999954 Pb
0.747966 0.499945 0.504226 Pb
0.500066 0.999398 0.750201 Pb
0.750030 0.999996 0.000081 Pb
0.498263 0.502520 0.753625 Pb
0.750507 0.499953 0.001379 Pb
0.750109 0.000285 0.250005 Pb
-0.000034 0.999810 0.499982 Pb
0.749985 0.499806 0.250740 Pb
0.998392 0.499746 0.499506 Pb
0.750209 0.999640 0.750163 Pb
0.000014 0.000048 0.000066 Pb
0.249887 0.000122 0.249948 Pb
0.499887 0.000284 0.499870 Pb
0.752874 0.501379 0.752713 Pb
0.000085 0.499918 0.000077 Pb
0.249846 0.999702 0.750049 Pb
0.500032 0.999855 0.999972 Pb
0.249811 0.500311 0.750268 Pb
0.500456 0.499601 0.000920 Pb
0.984401 0.125196 0.230980 Br
0.233337 0.124537 0.479964 Br
0.984564 0.624905 0.230735 Br
0.233557 0.625375 0.479940 Br
0.984951 0.124946 0.730773 Br
0.234246 0.124950 0.980271 Br
0.484383 0.125788 0.230542 Br
0.733884 0.125271 0.479504 Br
0.985898 0.624972 0.733225 Br
0.233578 0.624866 0.981340 Br
0.484743 0.624825 0.230807 Br
0.484680 0.124685 0.731621 Br
0.733805 0.124971 0.980584 Br
0.735056 0.624866 0.982219 Br
0.230425 0.875167 0.234207 Br
0.480042 0.875726 0.484157 Br
0.231477 0.375296 0.234910 Br
0.230378 0.874655 0.734209 Br
0.480708 0.874453 0.983807 Br
0.731027 0.875339 0.234270 Br
0.980313 0.874726 0.484239 Br
0.233552 0.374804 0.733148 Br
0.479305 0.375580 0.983133 Br
0.729471 0.375086 0.235503 Br
0.979216 0.374884 0.484255 Br
0.729956 0.875011 0.734421 Br
0.980827 0.875048 0.984562 Br
0.980488 0.375115 0.984406 Br
0.769589 0.125363 0.266011 Br
0.018912 0.124922 0.515814 Br
0.767837 0.625040 0.265979 Br
0.017294 0.624489 0.516423 Br
0.771128 0.124392 0.767070 Br
0.019083 0.125147 0.015729 Br
0.269704 0.125123 0.265698 Br
0.519139 0.126179 0.515242 Br
0.771308 0.625807 0.767969 Br
0.019236 0.624953 0.015525 Br
0.269301 0.124570 0.765901 Br
0.519468 0.125218 0.015276 Br
0.269006 0.624772 0.767521 Br
0.520655 0.624132 0.014523 Br
0.015572 0.874997 0.269527 Br
0.265751 0.874914 0.519986 Br
0.015823 0.375191 0.270171 Br
0.016174 0.875136 0.769852 Br
0.265717 0.874942 0.019498 Br
0.515486 0.875347 0.269263 Br
0.765505 0.874745 0.518401 Br
0.016364 0.374806 0.769663 Br
0.265057 0.374988 0.018932 Br
0.761637 0.374901 0.524847 Br
0.515553 0.873684 0.769510 Br
0.765755 0.875056 0.019877 Br
0.517408 0.376571 0.762415 Br
0.766521 0.374783 0.018901 Br
0.873884 0.982166 0.224575 Br
0.123924 0.981889 0.474592 Br
0.873632 0.482052 0.224930 Br
0.120571 0.482527 0.474626 Br
0.873881 0.981768 0.724552 Br
0.123953 0.982121 0.974597 Br
0.373968 0.982124 0.224501 Br
0.623756 0.982201 0.474608 Br
0.875491 0.481976 0.726219 Br
0.124131 0.481927 0.974409 Br
0.374573 0.482032 0.224812 Br
0.374020 0.982004 0.724608 Br
0.623810 0.982081 0.974566 Br
0.623602 0.481797 0.974228 Br
0.974535 0.017871 0.373963 Br
0.224613 0.017995 0.623926 Br
0.973320 0.518506 0.373889 Br
0.221938 0.517702 0.623934 Br
0.974576 0.017896 0.873919 Br
0.224533 0.018061 0.123904 Br
0.474510 0.018055 0.373939 Br
0.724753 0.017868 0.623911 Br
0.974614 0.517808 0.874202 Br
0.224839 0.517776 0.123897 Br
0.474576 0.017781 0.873868 Br
0.724508 0.018068 0.123927 Br
0.475368 0.518629 0.869172 Br
0.723402 0.517517 0.125340 Br
0.025558 0.767918 0.126260 Br
0.275643 0.768034 0.376208 Br
0.025447 0.268037 0.126178 Br
0.025140 0.767782 0.626089 Br
0.275588 0.767943 0.876105 Br
0.525239 0.767862 0.125649 Br
0.775280 0.767858 0.375942 Br
0.025270 0.267798 0.626117 Br
0.275443 0.267951 0.876042 Br
0.525757 0.268891 0.126206 Br
0.774797 0.268799 0.376591 Br
0.525919 0.768251 0.625908 Br
0.775520 0.768293 0.876218 Br
0.775823 0.267168 0.876319 Br
0.126155 0.232142 0.275570 Br
0.375077 0.231018 0.524744 Br
0.126184 0.732004 0.275652 Br
0.126159 0.231975 0.775783 Br
0.376198 0.232083 0.025536 Br
0.626030 0.232362 0.275896 Br
0.875632 0.232063 0.525594 Br
0.126290 0.732251 0.775608 Br
0.376205 0.731842 0.025340 Br
0.875845 0.731938 0.525025 Br
0.626511 0.233189 0.773122 Br
0.876024 0.231996 0.025702 Br
0.626167 0.731604 0.774653 Br
0.876104 0.732146 0.025762 Br
0.874015 0.767911 0.224403 Br
0.123799 0.767942 0.474391 Br
0.873796 0.268181 0.224676 Br
0.123327 0.267636 0.474399 Br
0.874081 0.768423 0.724863 Br
0.123997 0.767981 0.974530 Br
0.373822 0.768103 0.224266 Br
0.623644 0.768004 0.474738 Br
0.874521 0.267436 0.723930 Br
0.123940 0.267995 0.974450 Br
0.374011 0.268062 0.224417 Br
0.374080 0.767877 0.724651 Br
0.623871 0.767768 0.974503 Br
0.623849 0.268204 0.974365 Br
0.974306 0.232143 0.373945 Br
0.225487 0.232639 0.623822 Br
0.973902 0.731602 0.373976 Br
0.223916 0.732163 0.623938 Br
0.974371 0.232050 0.873915 Br
0.224463 0.232034 0.123825 Br
0.474229 0.232372 0.373749 Br
0.726130 0.228042 0.624393 Br
0.974592 0.732360 0.874031 Br
0.224507 0.732097 0.123957 Br
0.474707 0.232403 0.874262 Br
0.724473 0.232081 0.124114 Br
0.475446 0.728661 0.873287 Br
0.724704 0.732308 0.123859 Br
0.126150 0.017986 0.275471 Br
0.376128 0.018047 0.525455 Br
0.126362 0.517928 0.275940 Br
0.126182 0.017948 0.775456 Br
0.376167 0.017942 0.025428 Br
0.626007 0.017992 0.275423 Br
0.876011 0.017816 0.525325 Br
0.127550 0.517442 0.775616 Br
0.376625 0.518180 0.025288 Br
0.870759 0.517796 0.523868 Br
0.626023 0.017923 0.775461 Br
0.876041 0.017931 0.025584 Br
0.625565 0.518274 0.770345 Br
0.876076 0.517957 0.026191 Br
0.025465 0.982129 0.126154 Br
0.275404 0.982003 0.376155 Br
0.025555 0.481982 0.126376 Br
0.025348 0.982045 0.626108 Br
0.275517 0.981958 0.876092 Br
0.525434 0.982113 0.126097 Br
0.775435 0.982106 0.376105 Br
0.023387 0.482218 0.625934 Br
0.276983 0.481486 0.875774 Br
0.526174 0.481606 0.124216 Br
0.770390 0.480338 0.378031 Br
0.525382 0.982115 0.626099 Br
0.775425 0.981814 0.876130 Br
0.775840 0.482394 0.878305 Br
0.384869 0.373781 0.351378 Cs
0.638845 0.362138 0.616119 Cs
0.603101 0.630703 0.384006 Cs
0.349469 0.628421 0.636903 Cs
0.382247 0.367368 0.613828 Cs
0.646498 0.374447 0.365912 Cs
0.619278 0.628073 0.640370 Cs
0.362904 0.626769 0.396185 Cs
0.249806 0.249634 0.249924 Pb
0.499220 0.249850 0.499266 Pb
0.500094 0.250165 0.249718 Pb
0.248934 0.248894 0.499278 Pb
0.500669 0.499764 0.246611 Pb
0.246968 0.500988 0.500169 Pb
0.249812 0.500370 0.250229 Pb
0.492661 0.500808 0.495440 Pb
0.486336 0.623702 0.721294 Br
0.730430 0.624158 0.480861 Br
0.737019 0.375116 0.738465 Br
0.473629 0.376409 0.487453 Br
0.269629 0.625252 0.265414 Br
0.515817 0.624818 0.514304 Br
0.516583 0.376092 0.270360 Br
0.260107 0.375144 0.515086 Br
0.375579 0.481787 0.721507 Br
0.479225 0.518609 0.375001 Br
0.735420 0.523981 0.627838 Br
0.519805 0.266039 0.626016 Br
0.275421 0.267541 0.375949 Br
0.625932 0.734400 0.273523 Br
0.375922 0.732268 0.525386 Br
0.373971 0.264954 0.727331 Br
0.623206 0.269352 0.477273 Br
0.474245 0.732726 0.373725 Br
0.727317 0.734328 0.623899 Br
0.625316 0.518510 0.276705 Br
0.371955 0.515838 0.533950 Br
0.277532 0.483843 0.376698 Br
0.612907 0.484618 0.522518 Br
