Cs Pb Br                                
   1.0000000000000000     
     8.4200180000000007    0.0000000000000000    8.0779809999999994
     0.0000000000000000   11.7638079999999992    0.0000000000000000
    -8.4200180000000007    0.0000000000000000    8.0779809999999994
   Cs   Pb   Br
     8     8    24
Selective dynamics
Direct
  0.2721250000000026  0.2500000000000000  0.2082359999999994   F   F   F
  0.8085269389477077  0.3009762169570394  0.6392442418282229   T   T   T
  0.7905044650527699  0.8215397499678687  0.2618756493627927   T   T   T
  0.2686626218619423  0.8493572807941305  0.6856974658703550   T   T   T
  0.3418215454250060  0.4220998282855959  0.7322790547955265   T   T   T
  0.7662070617306611  0.3087896981426894  0.1779363260563471   T   T   T
  0.7615750744209819  0.7598463419995554  0.6874458014043583   T   T   T
  0.3533649827671894  0.8171140756640796  0.2090960431252782   T   T   T
  0.0346318084695127  0.0555369056751829  0.9639141829215987   T   T   T
  0.5549212899857991  0.0917462408786207  0.4585938665247582   T   T   T
  0.5894507128420372  0.0761484467284390  0.9257771854892667   T   T   T
  0.0401361186400848  0.0617885814279973  0.4579564876641342   T   T   T
  0.5483675208871048  0.5667176901493818  0.9557944610716191   T   T   T
  0.0279719970258654  0.5699658811954507  0.4377195960168976   T   T   T
  0.0678944369256342  0.5470973808940940  0.9402729135916061   T   T   T
  0.5175127422001609  0.5814555739498815  0.4386027906479271   T   T   T
  0.4992598890688953  0.8180986587614569  0.9288286615813703   T   T   T
  0.9894692379641441  0.8236077305715597  0.4964666098846706   T   T   T
  0.0179218177356333  0.3191713852246849  0.0449683908129828   T   T   T
  0.5207440805757386  0.3215377072574057  0.4298303940808381   T   T   T
  0.0514713891569443  0.8007779114464029  0.8733599691673319   T   T   T
  0.5423571740640440  0.8410310294319459  0.4541265661263836   T   T   T
  0.5793691863871473  0.3298700307415174  0.8971920737989620   T   T   T
  0.0028309322932287  0.3168227321850452  0.3579778060157324   T   T   T
  0.3269209873265240  0.5045379592229793  0.0403206626939365   T   T   T
  0.7645039964826310  0.5499796415805065  0.4896697071085256   T   T   T
  0.6175440981653537  0.5783039356528121  0.1870576388413596   T   T   T
  0.0665098391049668  0.4812377809992228  0.6919891150310775   T   T   T
  0.6498758655949359  0.0422949172650178  0.6919153357113217   T   T   T
  0.1096984317287024  0.9776068605947401  0.2203545618671754   T   T   T
  0.7963979848905183  0.9778779057666043  0.0308051599619503   T   T   T
  0.3018600170899290  0.0740271707412177  0.4796736704417199   T   T   T
  0.3254649695948331  0.0888388757656600  0.9387488524368877   T   T   T
  0.7987791394065695  0.0964412826343093  0.4135728007288648   T   T   T
  0.5353461754908579  0.0774314162389373  0.2150344733002427   T   T   T
  0.0551966753831934  0.1084292147703891  0.7161652507692864   T   T   T
  0.8017413262872282  0.5667716645950236  0.8914208375428387   T   T   T
  0.2790392306594640  0.5705822879833278  0.4170425774725715   T   T   T
  0.5202821917733118  0.6325546517753295  0.6921392652030249   T   T   T
  0.0031362316434311  0.6176490913991515  0.1865360095963524   T   T   T

  0.00000000E+00  0.00000000E+00  0.00000000E+00
  0.00000000E+00  0.00000000E+00  0.00000000E+00
  0.00000000E+00  0.00000000E+00  0.00000000E+00
  0.00000000E+00  0.00000000E+00  0.00000000E+00
  0.00000000E+00  0.00000000E+00  0.00000000E+00
  0.00000000E+00  0.00000000E+00  0.00000000E+00
  0.00000000E+00  0.00000000E+00  0.00000000E+00
  0.00000000E+00  0.00000000E+00  0.00000000E+00
  0.00000000E+00  0.00000000E+00  0.00000000E+00
  0.00000000E+00  0.00000000E+00  0.00000000E+00
  0.00000000E+00  0.00000000E+00  0.00000000E+00
  0.00000000E+00  0.00000000E+00  0.00000000E+00
  0.00000000E+00  0.00000000E+00  0.00000000E+00
  0.00000000E+00  0.00000000E+00  0.00000000E+00
  0.00000000E+00  0.00000000E+00  0.00000000E+00
  0.00000000E+00  0.00000000E+00  0.00000000E+00
  0.00000000E+00  0.00000000E+00  0.00000000E+00
  0.00000000E+00  0.00000000E+00  0.00000000E+00
  0.00000000E+00  0.00000000E+00  0.00000000E+00
  0.00000000E+00  0.00000000E+00  0.00000000E+00
  0.00000000E+00  0.00000000E+00  0.00000000E+00
  0.00000000E+00  0.00000000E+00  0.00000000E+00
  0.00000000E+00  0.00000000E+00  0.00000000E+00
  0.00000000E+00  0.00000000E+00  0.00000000E+00
  0.00000000E+00  0.00000000E+00  0.00000000E+00
  0.00000000E+00  0.00000000E+00  0.00000000E+00
  0.00000000E+00  0.00000000E+00  0.00000000E+00
  0.00000000E+00  0.00000000E+00  0.00000000E+00
  0.00000000E+00  0.00000000E+00  0.00000000E+00
  0.00000000E+00  0.00000000E+00  0.00000000E+00
  0.00000000E+00  0.00000000E+00  0.00000000E+00
  0.00000000E+00  0.00000000E+00  0.00000000E+00
  0.00000000E+00  0.00000000E+00  0.00000000E+00
  0.00000000E+00  0.00000000E+00  0.00000000E+00
  0.00000000E+00  0.00000000E+00  0.00000000E+00
  0.00000000E+00  0.00000000E+00  0.00000000E+00
  0.00000000E+00  0.00000000E+00  0.00000000E+00
  0.00000000E+00  0.00000000E+00  0.00000000E+00
  0.00000000E+00  0.00000000E+00  0.00000000E+00
  0.00000000E+00  0.00000000E+00  0.00000000E+00
