Cs Pb Br 
 1.0000000000000000
     8.4200180000000007    0.0000000000000000    8.0779809999999994
     0.0000000000000000   11.7638079999999992    0.0000000000000000
    -8.4200180000000007    0.0000000000000000    8.0779809999999994
 Cs  Pb  Br 
   8   8  24
Selective dynamics
Cartesian
  0.5379465300020001  2.9409519999999998  3.8803470311410000   F   F   F
  1.4253633568346411  3.5406264288489888 11.6950680906555107   T   T   T
  4.4510641434282441  9.6644358829900376  8.5011065690267387   T   T   T
 -3.5114408931780146  9.9916759746642203  7.7093026558598226   T   T   T
 -3.2876592571349161  4.9655013367847340  8.6765642406700678   T   T   T
  4.9532501832509306  3.6325427213285670  7.6267723478190668   T   T   T
  0.6241698131268789  8.9386864767850795 11.7051631035204142   T   T   T
  1.2147470686258279  9.6123731002097106  4.5435494803998351   T   T   T
  0.5954436800306584  0.6533254952769568 -0.0117454539164187   T   T   T
  0.8110786394355922  1.0792851624178468  8.1871561775042672   T   T   T
 -2.8318749535661714  0.8957957068116020 12.2399821733902083   T   T   T
 -3.5180550279491385  0.7268690085113462  4.0235826099659855   T   T   T
 -3.4305421700385703  6.6667580971208045 12.1505919111848932   T   T   T
 -3.4500821589613282  6.7049691929340796  3.7618478404591720   T   T   T
  1.0745755236599426  6.4359485461409713  0.0659757022986410   T   T   T
  0.6644232124489786  6.8401317324762339  7.7234831081517168   T   T   T
 -3.6169767967929416  9.6239555467273163 11.5360721784703735   T   T   T
  4.1510910024764511  9.6887632097595304 12.0033615461416172   T   T   T
 -0.2277326321495983  3.7546708948772030 16.6639879097417385   T   T   T
  0.7654948767334638  3.7825078529363583  7.6787225453608174   T   T   T
  1.4997013623181108  9.4201976008964792 -0.6072108592523274   T   T   T
  0.7429033069860486  9.8937275522797616  8.0495767200671633   T   T   T
  5.7439435671805370  3.8805277065972876  3.8496528051194585   T   T   T
 -2.9903430693871815  3.7270417914602700  2.9146061326937547   T   T   T
 -6.0068381077877788  5.9352876810109949 11.0445520712738858   T   T   T
  2.3141096635471987  6.4698549074618894 10.1311913483090272   T   T   T
  3.6247037362643133  6.8030564646640590  6.4995575441072670   T   T   T
  3.1534712380751819  5.6611888580209335 14.2051211400308457   T   T   T
 -0.3539730950903960  0.4975492860815913 10.8389638301191216   T   T   T
 -0.9317266075763087 -0.2634285924807309  2.6661618112606194   T   T   T
  6.4463053665694101 11.5035679308804664  6.6821312872584775   T   T   T
 -1.4971941618678597 12.6346494233829443  6.3132142787405732   T   T   T
 -5.1638613326400007  1.0450834774430928 10.2122952343096554   T   T   T
  3.2434443053803332  1.1345167321837648  9.7933559377271706   T   T   T
  2.6970302980556067 12.6746963138029827  6.0615606237021860   T   T   T
  2.8546506978147028 13.0393484641496364 14.3090279835831282   T   T   T
  7.6649149009965845  6.6673930421362924  5.5993507893381365   T   T   T
 -1.1619906642266196  6.7122204840365693  5.6229356205362659   T   T   T
 -1.4470396517055153  7.4412514729918753  9.7939174934471538   T   T   T
 -1.5442294315595702  7.2659053225940795  1.5321687609623804   T   T   T
