Cs7 Pb8 Br24
1.0
8.420018 0.000000 8.077981
0.000000 11.763808 0.000000
-8.420018 0.000000 8.077981
Cs Pb Br Cs
6 8 24 1
direct
0.270776 0.247933 0.197562 Cs
0.768316 0.245878 0.738452 Cs
0.217923 0.763082 0.767607 Cs
0.282253 0.237479 0.732540 Cs
0.731716 0.753835 0.761961 Cs
0.229172 0.752096 0.302638 Cs
-0.000545 -0.004291 0.008521 Pb
0.500716 0.004405 0.491466 Pb
0.508939 -0.001881 0.001089 Pb
-0.009070 0.002025 0.498916 Pb
0.499992 0.500742 -0.008612 Pb
-0.000178 0.499754 0.508646 Pb
0.007256 0.501027 0.000840 Pb
0.492796 0.499344 0.499144 Pb
0.474913 0.747859 0.944845 Br
0.959136 0.750164 0.465493 Br
0.982895 0.249528 0.973811 Br
0.440502 0.251500 0.467450 Br
0.059975 0.748854 0.032692 Br
0.517619 0.750816 0.526213 Br
0.540032 0.250091 0.033849 Br
0.025264 0.252483 0.555077 Br
0.251192 0.460212 0.948196 Br
0.745899 0.467609 0.508440 Br
0.443672 0.528622 0.245664 Br
0.975722 0.554453 0.751343 Br
0.541915 0.032732 0.750306 Br
0.058980 0.029422 0.254514 Br
0.757024 0.938758 0.033835 Br
0.245400 0.970775 0.545304 Br
0.254607 0.029489 0.954754 Br
0.742896 0.060994 0.466078 Br
0.440687 0.971028 0.245525 Br
0.957657 0.967130 0.749802 Br
0.754300 0.531002 -0.008790 Br
0.248933 0.540206 0.552078 Br
0.524372 0.446384 0.748705 Br
0.056340 0.471321 0.254337 Br
0.749859 0.497993 0.249780 Cs
