Cs64 Pb64 Br191
1.0
16.840035 0.000000 16.155961
0.000000 23.527616 0.000000
-16.840035 0.000000 16.155961
Cs Pb Br Cs Pb Br
56 56 168 8 8 23
direct
0.885987 0.875273 0.353470 Cs
0.135929 0.875101 0.603883 Cs
0.886293 0.374706 0.352398 Cs
0.135712 0.374644 0.604675 Cs
0.886237 0.875102 0.853893 Cs
0.135857 0.875023 0.103430 Cs
0.385823 0.875427 0.353903 Cs
0.635880 0.875458 0.603640 Cs
0.885582 0.374889 0.853188 Cs
0.136311 0.374787 0.104212 Cs
0.385794 0.875151 0.853737 Cs
0.636128 0.874769 0.104505 Cs
0.386188 0.374232 0.854014 Cs
0.635853 0.375331 0.103783 Cs
0.103709 0.124946 0.385913 Cs
0.353732 0.124630 0.636078 Cs
0.099812 0.625451 0.385125 Cs
0.103688 0.124848 0.886019 Cs
0.353666 0.124758 0.135608 Cs
0.603208 0.124757 0.385905 Cs
0.854414 0.124455 0.636293 Cs
0.103533 0.625059 0.885849 Cs
0.357414 0.624927 0.138127 Cs
0.853477 0.625294 0.635938 Cs
0.603751 0.125078 0.885893 Cs
0.853982 0.124916 0.135878 Cs
0.604245 0.625658 0.886355 Cs
0.856823 0.625294 0.135945 Cs
0.896179 0.875697 0.113334 Cs
0.146245 0.875172 0.363944 Cs
0.896173 0.374328 0.112051 Cs
0.146910 0.374476 0.363810 Cs
0.896646 0.875148 0.614257 Cs
0.146087 0.875045 0.864077 Cs
0.395739 0.875196 0.113802 Cs
0.646637 0.876592 0.361856 Cs
0.894894 0.373892 0.614141 Cs
0.146158 0.374844 0.863721 Cs
0.392685 0.377203 0.116355 Cs
0.396056 0.875051 0.614235 Cs
0.646194 0.875061 0.864295 Cs
0.646846 0.374983 0.864768 Cs
0.113690 0.124709 0.145842 Cs
0.363586 0.124337 0.396521 Cs
0.114668 0.624514 0.145983 Cs
0.114044 0.124836 0.646110 Cs
0.363886 0.124891 0.896266 Cs
0.614068 0.124869 0.145919 Cs
0.864159 0.124830 0.396162 Cs
0.113244 0.625182 0.645765 Cs
0.363825 0.625181 0.896619 Cs
0.614191 0.628290 0.143355 Cs
0.864013 0.625644 0.397048 Cs
0.613353 0.124271 0.645841 Cs
0.864339 0.124749 0.896993 Cs
0.863912 0.625219 0.896034 Cs
0.752947 0.750775 0.249388 Pb
0.999886 0.750434 0.500013 Pb
0.750243 0.250059 0.249606 Pb
0.999940 0.249585 0.499939 Pb
0.750137 0.750570 0.750138 Pb
0.000103 0.749926 0.999979 Pb
0.249632 0.750392 0.249619 Pb
0.500105 0.749923 0.500246 Pb
0.750917 0.247911 0.750864 Pb
0.000068 0.249873 0.999865 Pb
0.249775 0.750206 0.750255 Pb
0.499614 0.750542 0.999609 Pb
0.249679 0.249393 0.750364 Pb
0.499827 0.249946 0.000352 Pb
0.000758 0.750387 0.250028 Pb
0.249676 0.750102 0.500114 Pb
0.999939 0.249808 0.249827 Pb
0.999991 0.750089 0.750072 Pb
0.249916 0.749822 1.000000 Pb
0.499708 0.750790 0.249768 Pb
0.750166 0.751334 0.500389 Pb
0.000003 0.249708 0.750071 Pb
0.249938 0.249798 0.999832 Pb
0.749980 0.249202 0.499940 Pb
0.499955 0.750219 0.750141 Pb
0.750270 0.750341 0.999898 Pb
0.499813 0.249197 0.750466 Pb
0.749998 0.249776 0.000047 Pb
0.000041 0.000067 0.249967 Pb
0.249909 0.999679 0.500056 Pb
0.000843 0.499475 0.249939 Pb
0.000048 0.999881 0.750068 Pb
0.249933 0.999835 0.999944 Pb
0.499804 0.000129 0.249801 Pb
0.749972 0.000231 0.499976 Pb
0.999804 0.500099 0.750013 Pb
0.249785 0.500251 0.999851 Pb
0.748236 0.499980 0.499530 Pb
0.500001 0.999720 0.750116 Pb
0.749943 0.000108 0.999965 Pb
0.500573 0.499702 0.750598 Pb
0.750372 0.500484 0.000133 Pb
0.750270 0.000546 0.249868 Pb
0.999981 0.999890 0.499966 Pb
0.753102 0.500627 0.248785 Pb
0.999547 0.498944 0.499364 Pb
0.750044 0.999458 0.750057 Pb
0.000023 0.999855 0.999955 Pb
0.249830 0.999831 0.249821 Pb
0.499907 0.999987 0.499959 Pb
0.750221 0.500455 0.750216 Pb
0.000078 0.499775 0.999858 Pb
0.249913 0.999772 0.750042 Pb
0.499982 0.000136 0.999991 Pb
0.249936 0.499986 0.750421 Pb
0.499560 0.499919 0.999495 Pb
0.984341 0.125045 0.230911 Br
0.233758 0.124739 0.481725 Br
0.986018 0.624776 0.232358 Br
0.230572 0.625323 0.477944 Br
0.984736 0.124927 0.730987 Br
0.234310 0.124953 0.980923 Br
0.484309 0.125051 0.230478 Br
0.733546 0.125303 0.479960 Br
0.984085 0.624962 0.730430 Br
0.233775 0.624860 0.980182 Br
0.486535 0.623346 0.237857 Br
0.484324 0.124742 0.731207 Br
0.733957 0.125224 0.980937 Br
0.734089 0.625250 0.980851 Br
0.230579 0.874761 0.233971 Br
0.480230 0.874666 0.484826 Br
0.233557 0.374737 0.234683 Br
0.230784 0.874696 0.734248 Br
0.480509 0.874965 0.984205 Br
0.733790 0.875820 0.233599 Br
0.980506 0.874600 0.484140 Br
0.232391 0.374917 0.733660 Br
0.479066 0.375565 0.986653 Br
0.731443 0.376181 0.233338 Br
0.978953 0.374668 0.484059 Br
0.730125 0.874732 0.734076 Br
0.981213 0.874802 0.984184 Br
0.981059 0.374960 0.983276 Br
0.769509 0.126008 0.265649 Br
0.018853 0.124828 0.515608 Br
0.771884 0.625914 0.266239 Br
0.015337 0.623922 0.515843 Br
0.770321 0.124012 0.766741 Br
0.018744 0.124954 0.015416 Br
0.269526 0.124539 0.265376 Br
0.518142 0.125940 0.515258 Br
0.768594 0.624938 0.765005 Br
0.018868 0.624701 0.015867 Br
0.268943 0.124745 0.765650 Br
0.518912 0.125280 0.015649 Br
0.267927 0.624760 0.767125 Br
0.518002 0.624570 0.015063 Br
0.015996 0.875097 0.269414 Br
0.265898 0.874423 0.519226 Br
0.016789 0.374759 0.269485 Br
0.015674 0.874865 0.768908 Br
0.265494 0.874786 0.018826 Br
0.514851 0.874890 0.268963 Br
0.766365 0.875190 0.519648 Br
0.015264 0.375151 0.768593 Br
0.265172 0.375128 0.018658 Br
0.760127 0.375527 0.520587 Br
0.515647 0.874444 0.769097 Br
0.765268 0.875208 0.019015 Br
0.516769 0.374954 0.768407 Br
0.764941 0.375332 0.018463 Br
0.874025 0.982403 0.224431 Br
0.123944 0.981980 0.474534 Br
0.876492 0.481544 0.222243 Br
0.119437 0.482175 0.474524 Br
0.873884 0.981945 0.724502 Br
0.123954 0.982143 0.974457 Br
0.373982 0.982072 0.224450 Br
0.623896 0.982076 0.474340 Br
0.873653 0.483473 0.722932 Br
0.124038 0.482040 0.974629 Br
0.378562 0.482959 0.234313 Br
0.374005 0.982055 0.724494 Br
0.623871 0.982130 0.974585 Br
0.623425 0.481941 0.976056 Br
0.974505 0.017862 0.373989 Br
0.224501 0.017731 0.623937 Br
0.972833 0.517198 0.373923 Br
0.224640 0.518177 0.623558 Br
0.974511 0.017772 0.873914 Br
0.224457 0.017848 0.123967 Br
0.474457 0.017828 0.373947 Br
0.724499 0.018066 0.623875 Br
0.974427 0.517926 0.873683 Br
0.227741 0.517847 0.124234 Br
0.474496 0.017874 0.873931 Br
0.724491 0.017994 0.123979 Br
0.475857 0.516698 0.876006 Br
0.726079 0.519430 0.123550 Br
0.025721 0.767674 0.126090 Br
0.275750 0.767978 0.376087 Br
0.025488 0.267992 0.125978 Br
0.025510 0.767863 0.625898 Br
0.275579 0.767919 0.875949 Br
0.524370 0.767556 0.125740 Br
0.775113 0.767677 0.376139 Br
0.025279 0.267874 0.625897 Br
0.275451 0.267926 0.876069 Br
0.525380 0.268548 0.126390 Br
0.775916 0.267854 0.376307 Br
0.525567 0.767766 0.625974 Br
0.775595 0.768020 0.875752 Br
0.775768 0.267123 0.876228 Br
0.125972 0.232042 0.275238 Br
0.375354 0.231789 0.525240 Br
0.126587 0.732020 0.275853 Br
0.126026 0.232157 0.775645 Br
0.376013 0.232258 0.025687 Br
0.626100 0.231877 0.275626 Br
0.875502 0.232187 0.525693 Br
0.125976 0.732092 0.775380 Br
0.376004 0.731738 0.025701 Br
0.875782 0.732259 0.525521 Br
0.626218 0.232547 0.774344 Br
0.875924 0.232133 0.025529 Br
0.625943 0.732158 0.775615 Br
0.876040 0.732204 0.025172 Br
0.875833 0.768555 0.223037 Br
0.123969 0.767928 0.474517 Br
0.873868 0.268202 0.224147 Br
0.123520 0.268033 0.474659 Br
0.873840 0.767871 0.724373 Br
0.124001 0.767798 0.974419 Br
0.374200 0.767735 0.224435 Br
0.623998 0.771133 0.474382 Br
0.874076 0.267105 0.724273 Br
0.123946 0.267915 0.974440 Br
0.374059 0.267434 0.224454 Br
0.373979 0.767733 0.724435 Br
0.623819 0.767742 0.974931 Br
0.623808 0.268086 0.974657 Br
0.974398 0.232072 0.373913 Br
0.224606 0.232342 0.624155 Br
0.973981 0.732449 0.374001 Br
0.224448 0.731692 0.623844 Br
0.974372 0.232077 0.873878 Br
0.224180 0.231969 0.123863 Br
0.474151 0.231752 0.374011 Br
0.725483 0.229973 0.624191 Br
0.974513 0.732033 0.873887 Br
0.224710 0.731913 0.124008 Br
0.474525 0.232228 0.874325 Br
0.724295 0.232246 0.124154 Br
0.474354 0.731928 0.873757 Br
0.727002 0.732476 0.123919 Br
0.126101 0.017992 0.275492 Br
0.376044 0.017784 0.525487 Br
0.127578 0.517086 0.276868 Br
0.126035 0.017826 0.775451 Br
0.376049 0.017817 0.025412 Br
0.625970 0.017887 0.275341 Br
0.875916 0.017974 0.525374 Br
0.126207 0.517615 0.775097 Br
0.376202 0.518253 0.025513 Br
0.866114 0.514602 0.524921 Br
0.625970 0.017970 0.775430 Br
0.875964 0.017864 0.025448 Br
0.625977 0.517475 0.776636 Br
0.875913 0.517855 0.025235 Br
0.025499 0.982102 0.126035 Br
0.275368 0.982098 0.376069 Br
0.025918 0.482104 0.126051 Br
0.025447 0.982094 0.625943 Br
0.275462 0.982084 0.875992 Br
0.525501 0.982015 0.126049 Br
0.775510 0.982200 0.376064 Br
0.024281 0.481884 0.625135 Br
0.275949 0.481845 0.875610 Br
0.521743 0.482586 0.133584 Br
0.774898 0.481836 0.376273 Br
0.525385 0.982219 0.625956 Br
0.775419 0.981894 0.875981 Br
0.775566 0.482856 0.875202 Br
0.382440 0.367753 0.352828 Cs
0.638815 0.366382 0.616202 Cs
0.611868 0.636929 0.381429 Cs
0.352619 0.626132 0.638735 Cs
0.389258 0.371709 0.615169 Cs
0.650016 0.371331 0.363501 Cs
0.614393 0.627639 0.647582 Cs
0.360274 0.629398 0.394445 Cs
0.249560 0.248851 0.249338 Pb
0.499278 0.250636 0.499830 Pb
0.500194 0.249335 0.249753 Pb
0.249392 0.249352 0.500176 Pb
0.507281 0.498301 0.252492 Pb
0.247182 0.501487 0.499531 Pb
0.250828 0.499924 0.250765 Pb
0.496169 0.500067 0.506930 Pb
0.484387 0.624028 0.731124 Br
0.734287 0.624584 0.482983 Br
0.736381 0.374260 0.738934 Br
0.472414 0.376496 0.486866 Br
0.268991 0.624972 0.264727 Br
0.524266 0.624201 0.512340 Br
0.517237 0.374229 0.273188 Br
0.263321 0.375929 0.516277 Br
0.374905 0.482267 0.723954 Br
0.719376 0.514854 0.622578 Br
0.522017 0.267410 0.626098 Br
0.272834 0.264509 0.376008 Br
0.627077 0.738586 0.269363 Br
0.376257 0.729180 0.524886 Br
0.373999 0.266649 0.726319 Br
0.623388 0.269962 0.477194 Br
0.474823 0.732247 0.374060 Br
0.724702 0.732558 0.623786 Br
0.630393 0.526073 0.266287 Br
0.371667 0.524684 0.521157 Br
0.533451 0.481657 0.626382 Br
0.278052 0.482332 0.376504 Br
0.571571 0.492932 0.412643 Br
