Cs8 Pb8 Br23                            
   1.0000000000000000     
     8.4564889999999995    0.0000000000000000    8.0403009999999995
     0.0000000000000000   11.7298469999999995    0.0000000000000000
    -8.4564889999999995    0.0000000000000000    8.0403009999999995
   Cs   Pb   Br
     8     8    23
Direct
  0.2668729999999968  0.2466379999999972  0.2017900000000026
  0.7778509999999983  0.2463869999999986  0.7104580000000027
  0.7197880000000012  0.7530410000000032  0.2655820000000020
  0.2004700000000028  0.7504840000000002  0.7744470000000021
  0.2760600000000011  0.2423169999999999  0.7320890000000020
  0.7970800000000011  0.2492710000000002  0.2275020000000012
  0.7436369999999997  0.7584659999999985  0.8035270000000025
  0.2156039999999990  0.7537049999999965  0.2860200000000006
  0.0004020000000011  0.0013149999999982  0.0008910000000029
  0.4995839999999987  0.0048549999999992  0.4995279999999980
  0.5003770000000003  0.9989459999999966  0.0003129999999985
  0.0005150000000000  0.9996179999999981  0.4995359999999991
  0.4983450000000005  0.5021180000000030  0.0084409999999977
  0.0012070000000008  0.5000229999999988  0.5003329999999977
  0.0003180000000000  0.4990499999999969  0.0000690000000034
  0.4993309999999980  0.4949549999999974  0.4941800000000001
  0.4742859999999993  0.7480490000000017  0.9518270000000015
  0.9667299999999983  0.7495959999999968  0.4694689999999966
  0.9697999999999993  0.2504780000000011  0.9691890000000001
  0.4545529999999971  0.2509659999999982  0.4730690000000024
  0.0235839999999996  0.7501200000000026  0.0280839999999998
  0.5284329999999997  0.2515739999999980  0.0362920000000031
  0.0284479999999974  0.2499290000000016  0.5311499999999967
  0.2501379999999997  0.4685220000000001  0.9475580000000008
  0.7460609999999974  0.4659419999999983  0.4484660000000034
  0.4486440000000016  0.5448450000000022  0.2523640000000000
  0.9460210000000018  0.5299150000000026  0.7473430000000008
  0.5511130000000009  0.0342679999999973  0.7516970000000001
  0.0504859999999994  0.0338380000000029  0.2521920000000009
  0.7522510000000011  0.9717190000000002  0.0508749999999978
  0.2550749999999979  0.9590829999999997  0.5485410000000002
  0.2481519999999975  0.0285829999999976  0.9526010000000014
  0.7470229999999987  0.0333019999999991  0.4497050000000016
  0.4532979999999966  0.9554410000000004  0.2503219999999970
  0.9539350000000013  0.9734600000000029  0.7471579999999989
  0.7512919999999994  0.5310279999999992  0.0473659999999967
  0.2566100000000020  0.5375510000000006  0.5517940000000010
  0.0521140000000031  0.4672759999999982  0.2525090000000034
  0.5493409999999983  0.6070759999999993  0.6435579999999987

  0.00000000E+00  0.00000000E+00  0.00000000E+00
  0.00000000E+00  0.00000000E+00  0.00000000E+00
  0.00000000E+00  0.00000000E+00  0.00000000E+00
  0.00000000E+00  0.00000000E+00  0.00000000E+00
  0.00000000E+00  0.00000000E+00  0.00000000E+00
  0.00000000E+00  0.00000000E+00  0.00000000E+00
  0.00000000E+00  0.00000000E+00  0.00000000E+00
  0.00000000E+00  0.00000000E+00  0.00000000E+00
  0.00000000E+00  0.00000000E+00  0.00000000E+00
  0.00000000E+00  0.00000000E+00  0.00000000E+00
  0.00000000E+00  0.00000000E+00  0.00000000E+00
  0.00000000E+00  0.00000000E+00  0.00000000E+00
  0.00000000E+00  0.00000000E+00  0.00000000E+00
  0.00000000E+00  0.00000000E+00  0.00000000E+00
  0.00000000E+00  0.00000000E+00  0.00000000E+00
  0.00000000E+00  0.00000000E+00  0.00000000E+00
  0.00000000E+00  0.00000000E+00  0.00000000E+00
  0.00000000E+00  0.00000000E+00  0.00000000E+00
  0.00000000E+00  0.00000000E+00  0.00000000E+00
  0.00000000E+00  0.00000000E+00  0.00000000E+00
  0.00000000E+00  0.00000000E+00  0.00000000E+00
  0.00000000E+00  0.00000000E+00  0.00000000E+00
  0.00000000E+00  0.00000000E+00  0.00000000E+00
  0.00000000E+00  0.00000000E+00  0.00000000E+00
  0.00000000E+00  0.00000000E+00  0.00000000E+00
  0.00000000E+00  0.00000000E+00  0.00000000E+00
  0.00000000E+00  0.00000000E+00  0.00000000E+00
  0.00000000E+00  0.00000000E+00  0.00000000E+00
  0.00000000E+00  0.00000000E+00  0.00000000E+00
  0.00000000E+00  0.00000000E+00  0.00000000E+00
  0.00000000E+00  0.00000000E+00  0.00000000E+00
  0.00000000E+00  0.00000000E+00  0.00000000E+00
  0.00000000E+00  0.00000000E+00  0.00000000E+00
  0.00000000E+00  0.00000000E+00  0.00000000E+00
  0.00000000E+00  0.00000000E+00  0.00000000E+00
  0.00000000E+00  0.00000000E+00  0.00000000E+00
  0.00000000E+00  0.00000000E+00  0.00000000E+00
  0.00000000E+00  0.00000000E+00  0.00000000E+00
  0.00000000E+00  0.00000000E+00  0.00000000E+00
