Cs8 Pb8 Br23
1.0
8.456489 0.000000 8.040301
0.000000 11.729847 0.000000
-8.456489 0.000000 8.040301
Cs Pb Br
8 8 23
direct
0.266873 0.246638 0.201790 Cs
0.777851 0.246387 0.710458 Cs
0.719788 0.753041 0.265582 Cs
0.200470 0.750484 0.774447 Cs
0.276060 0.242317 0.732089 Cs
0.797080 0.249271 0.227502 Cs
0.743637 0.758466 0.803527 Cs
0.215604 0.753705 0.286020 Cs
0.000402 0.001315 0.000891 Pb
0.499584 0.004855 0.499528 Pb
0.500377 -0.001054 0.000313 Pb
0.000515 -0.000382 0.499536 Pb
0.498345 0.502118 0.008441 Pb
0.001207 0.500023 0.500333 Pb
0.000318 0.499050 0.000069 Pb
0.499331 0.494955 0.494180 Pb
0.474286 0.748049 0.951827 Br
0.966730 0.749596 0.469469 Br
0.969800 0.250478 0.969189 Br
0.454553 0.250966 0.473069 Br
0.023584 0.750120 0.028084 Br
0.528433 0.251574 0.036292 Br
0.028448 0.249929 0.531150 Br
0.250138 0.468522 0.947558 Br
0.746061 0.465942 0.448466 Br
0.448644 0.544845 0.252364 Br
0.946021 0.529915 0.747343 Br
0.551113 0.034268 0.751697 Br
0.050486 0.033838 0.252192 Br
0.752251 0.971719 0.050875 Br
0.255075 0.959083 0.548541 Br
0.248152 0.028583 0.952601 Br
0.747023 0.033302 0.449705 Br
0.453298 0.955441 0.250322 Br
0.953935 0.973460 0.747158 Br
0.751292 0.531028 0.047366 Br
0.256610 0.537551 0.551794 Br
0.052114 0.467276 0.252509 Br
0.549341 0.607076 0.643558 Br
