Cs64 Pb64 Br191
1.0
16.840035 0.000000 16.155961
0.000000 23.527616 0.000000
-16.840035 0.000000 16.155961
Cs Pb Br Cs Pb Br
56 56 168 8 8 23
direct
0.885909 0.875125 0.353616 Cs
0.135410 0.875287 0.603919 Cs
0.886472 0.374651 0.353461 Cs
0.137132 0.374354 0.605141 Cs
0.886231 0.875128 0.853975 Cs
0.135649 0.875177 0.103037 Cs
0.386185 0.875126 0.354619 Cs
0.635161 0.873978 0.603475 Cs
0.886020 0.374855 0.853722 Cs
0.135945 0.374741 0.103416 Cs
0.386228 0.875120 0.853586 Cs
0.636152 0.875062 0.103507 Cs
0.385759 0.374707 0.854088 Cs
0.636175 0.374834 0.103433 Cs
0.103325 0.125073 0.385989 Cs
0.352780 0.123355 0.637157 Cs
0.104096 0.626045 0.385479 Cs
0.103440 0.124858 0.886160 Cs
0.353835 0.124828 0.135889 Cs
0.603649 0.124991 0.385307 Cs
0.853607 0.124952 0.636136 Cs
0.103825 0.625028 0.886240 Cs
0.353576 0.625123 0.135244 Cs
0.853648 0.625494 0.636899 Cs
0.603901 0.124744 0.886502 Cs
0.853482 0.124860 0.135941 Cs
0.603816 0.624864 0.886742 Cs
0.853662 0.625151 0.136310 Cs
0.896519 0.875074 0.113879 Cs
0.146188 0.875626 0.363756 Cs
0.896295 0.374910 0.113963 Cs
0.146134 0.373789 0.361965 Cs
0.895975 0.875132 0.613908 Cs
0.146153 0.875156 0.864175 Cs
0.395964 0.874958 0.113929 Cs
0.646496 0.873635 0.365521 Cs
0.897798 0.374459 0.614305 Cs
0.146381 0.374862 0.863764 Cs
0.396151 0.374912 0.113336 Cs
0.396052 0.876530 0.614418 Cs
0.646226 0.875066 0.864084 Cs
0.645803 0.374840 0.864166 Cs
0.113578 0.124834 0.146118 Cs
0.363858 0.124766 0.396590 Cs
0.114411 0.625136 0.146796 Cs
0.113941 0.124965 0.646507 Cs
0.363878 0.125006 0.896357 Cs
0.614009 0.124825 0.146470 Cs
0.863883 0.125005 0.396443 Cs
0.113511 0.625444 0.647965 Cs
0.363982 0.625004 0.896983 Cs
0.613770 0.625058 0.145943 Cs
0.864352 0.625481 0.394754 Cs
0.614327 0.124724 0.646319 Cs
0.864061 0.124900 0.896747 Cs
0.863776 0.625113 0.896324 Cs
0.750168 0.750422 0.249725 Pb
-0.000158 0.750397 0.500025 Pb
0.750129 0.249602 0.249785 Pb
0.000110 0.250171 0.500021 Pb
0.750185 0.750627 0.750215 Pb
0.999980 0.749853 0.000018 Pb
0.249212 0.751621 0.249266 Pb
0.496143 0.747038 0.500562 Pb
0.750424 0.249345 0.750383 Pb
0.999958 0.250013 0.000018 Pb
0.249633 0.750526 0.750307 Pb
0.499945 0.750086 0.999922 Pb
0.249284 0.249237 0.750551 Pb
0.500105 0.249663 0.000163 Pb
-0.000008 0.750381 0.249893 Pb
0.248811 0.751146 0.499887 Pb
0.999810 0.249640 0.249800 Pb
-0.000007 0.750297 0.750180 Pb
0.249837 0.750297 0.999896 Pb
0.500097 0.750337 0.249518 Pb
0.750066 0.749715 0.500069 Pb
0.999810 0.249729 0.750123 Pb
0.249874 0.249708 0.999969 Pb
0.749974 0.250135 0.499971 Pb
0.499891 0.749530 0.750246 Pb
0.750082 0.750045 0.000083 Pb
0.500695 0.248690 0.750638 Pb
0.750087 0.249820 0.000054 Pb
0.999922 0.000004 0.249935 Pb
0.249523 0.000509 0.499880 Pb
0.000072 0.499874 0.249788 Pb
0.999928 0.000032 0.750071 Pb
0.249928 0.000064 0.999996 Pb
0.500072 -0.000389 0.249910 Pb
0.750055 0.000307 0.500050 Pb
0.999935 0.500041 0.750309 Pb
0.249822 0.499770 0.999931 Pb
0.753101 0.500048 0.500004 Pb
0.500193 0.999789 0.750285 Pb
0.750059 -0.000134 0.000063 Pb
0.499688 0.499801 0.749858 Pb
0.750171 0.499918 0.000053 Pb
0.749976 -0.000121 0.250001 Pb
0.999918 0.000314 0.499984 Pb
0.750273 0.499946 0.249410 Pb
0.999984 0.500818 0.500535 Pb
0.750085 -0.000280 0.750073 Pb
0.999949 -0.000029 0.000002 Pb
0.249924 0.000382 0.249917 Pb
0.500260 0.000397 0.500188 Pb
0.750410 0.499894 0.750417 Pb
0.999986 0.500082 0.000028 Pb
0.249737 0.999712 0.750221 Pb
0.499976 -0.000109 0.000046 Pb
0.250065 0.500417 0.750463 Pb
0.500015 0.499692 0.999969 Pb
0.984051 0.124956 0.230488 Br
0.233980 0.126515 0.480730 Br
0.984722 0.624915 0.231272 Br
0.238421 0.625144 0.478161 Br
0.984201 0.125008 0.730357 Br
0.234189 0.124976 0.980339 Br
0.484511 0.124701 0.231316 Br
0.733357 0.125775 0.480426 Br
0.983954 0.624986 0.731110 Br
0.234446 0.624892 0.981424 Br
0.483927 0.624775 0.231527 Br
0.484745 0.124211 0.729738 Br
0.734392 0.124906 0.980892 Br
0.734339 0.624897 0.980958 Br
0.229732 0.875654 0.233591 Br
0.485950 0.866817 0.486347 Br
0.231924 0.374513 0.234043 Br
0.230079 0.874818 0.734167 Br
0.480395 0.874867 0.984372 Br
0.729746 0.874968 0.234957 Br
0.980425 0.875242 0.484514 Br
0.233144 0.375050 0.734265 Br
0.480615 0.374803 0.984078 Br
0.731892 0.374963 0.233258 Br
0.982116 0.376122 0.483928 Br
0.729517 0.874865 0.733735 Br
0.980867 0.874864 0.984473 Br
0.980554 0.375099 0.984479 Br
0.769359 0.124948 0.265942 Br
0.019282 0.125669 0.515793 Br
0.768007 0.624961 0.266051 Br
0.021283 0.625159 0.515882 Br
0.769686 0.124648 0.765930 Br
0.019031 0.125032 0.015603 Br
0.270307 0.124975 0.266134 Br
0.518481 0.123033 0.514576 Br
0.767969 0.625027 0.765483 Br
0.019843 0.624905 0.015965 Br
0.267956 0.124600 0.766514 Br
0.519452 0.124827 0.015988 Br
0.267905 0.625123 0.767527 Br
0.518687 0.624829 0.015642 Br
0.015459 0.875061 0.269643 Br
0.264302 0.876046 0.519308 Br
0.015375 0.374860 0.269030 Br
0.015619 0.875012 0.769419 Br
0.265587 0.875059 0.019336 Br
0.515707 0.874578 0.271202 Br
0.764231 0.875070 0.519081 Br
0.015536 0.375032 0.768949 Br
0.265617 0.374897 0.018999 Br
0.766379 0.375660 0.520062 Br
0.515971 0.874170 0.767843 Br
0.765759 0.874869 0.019589 Br
0.514191 0.374327 0.768090 Br
0.765670 0.374966 0.019273 Br
0.873822 0.981931 0.224604 Br
0.123894 0.982427 0.474477 Br
0.873983 0.482243 0.224663 Br
0.131634 0.482324 0.474934 Br
0.873765 0.981912 0.724527 Br
0.123915 0.982147 0.974582 Br
0.373928 0.981731 0.224799 Br
0.623526 0.982350 0.474561 Br
0.873870 0.482216 0.724155 Br
0.123921 0.481937 0.974406 Br
0.373808 0.482899 0.224063 Br
0.373868 0.982280 0.724948 Br
0.623819 0.981985 0.974602 Br
0.623852 0.482072 0.974603 Br
0.974467 0.018049 0.374002 Br
0.224490 0.017959 0.623827 Br
0.975643 0.518073 0.374671 Br
0.225853 0.520527 0.623109 Br
0.974481 0.017929 0.873877 Br
0.224583 0.018170 0.123960 Br
0.474249 0.017191 0.374505 Br
0.724469 0.017893 0.623833 Br
0.974464 0.517950 0.873825 Br
0.223971 0.516634 0.124042 Br
0.474608 0.017895 0.873830 Br
0.724466 0.017862 0.123982 Br
0.474758 0.517711 0.872804 Br
0.724526 0.518051 0.124157 Br
0.025480 0.767918 0.126194 Br
0.275552 0.768178 0.375992 Br
0.025426 0.267899 0.126159 Br
0.025306 0.767924 0.626080 Br
0.275509 0.768163 0.875839 Br
0.525265 0.768049 0.126333 Br
0.775212 0.767820 0.376263 Br
0.025621 0.268098 0.626019 Br
0.275182 0.267920 0.876226 Br
0.525462 0.267985 0.126302 Br
0.775417 0.268185 0.376245 Br
0.527116 0.762749 0.625234 Br
0.775473 0.768073 0.876036 Br
0.775465 0.267787 0.876118 Br
0.126214 0.232008 0.275471 Br
0.376292 0.229121 0.526523 Br
0.125966 0.733040 0.275770 Br
0.125696 0.232106 0.775696 Br
0.376109 0.232019 0.025388 Br
0.626090 0.232241 0.275581 Br
0.875731 0.232362 0.525360 Br
0.126055 0.732228 0.775683 Br
0.376101 0.732245 0.025400 Br
0.876000 0.731733 0.525488 Br
0.626224 0.231880 0.775692 Br
0.876059 0.232077 0.025573 Br
0.625941 0.731794 0.775814 Br
0.876065 0.731936 0.025517 Br
0.873769 0.767964 0.224526 Br
0.123498 0.768247 0.473809 Br
0.873924 0.267842 0.224591 Br
0.124269 0.269006 0.475031 Br
0.873729 0.767983 0.724492 Br
0.123892 0.767915 0.974412 Br
0.373784 0.767562 0.225415 Br
0.622594 0.761054 0.475413 Br
0.873769 0.267851 0.724349 Br
0.123906 0.267991 0.974525 Br
0.373969 0.267356 0.223610 Br
0.373910 0.768357 0.724503 Br
0.623822 0.767909 0.974603 Br
0.623865 0.267909 0.974655 Br
0.974601 0.232119 0.374038 Br
0.224833 0.232138 0.623954 Br
0.974635 0.732155 0.374030 Br
0.223226 0.732505 0.623580 Br
0.974411 0.232097 0.873811 Br
0.224359 0.231820 0.124115 Br
0.474318 0.232038 0.374174 Br
0.724460 0.232129 0.623883 Br
0.974464 0.732017 0.873904 Br
0.224149 0.733160 0.123702 Br
0.475026 0.231743 0.873911 Br
0.724444 0.231946 0.124041 Br
0.474544 0.731926 0.873697 Br
0.724471 0.732040 0.123984 Br
0.126130 0.018157 0.275540 Br
0.376391 0.017234 0.525367 Br
0.126254 0.516242 0.276927 Br
0.125990 0.017862 0.775484 Br
0.376115 0.017930 0.025409 Br
0.625995 0.017751 0.275624 Br
0.875882 0.018037 0.525451 Br
0.126218 0.517670 0.775377 Br
0.376065 0.517728 0.025337 Br
0.879725 0.518340 0.525417 Br
0.625997 0.018037 0.775494 Br
0.876027 0.017864 0.025493 Br
0.625885 0.517681 0.775367 Br
0.876082 0.518078 0.025582 Br
0.025392 0.982095 0.126186 Br
0.275506 0.982044 0.376176 Br
0.025616 0.482117 0.126362 Br
0.025244 0.982230 0.626032 Br
0.275467 0.981910 0.876046 Br
0.525304 0.981811 0.126364 Br
0.775272 0.982035 0.376250 Br
0.026038 0.481944 0.625934 Br
0.275566 0.482098 0.875693 Br
0.525462 0.481921 0.125503 Br
0.776144 0.481973 0.376379 Br
0.525547 0.982146 0.625803 Br
0.775357 0.981882 0.876041 Br
0.775507 0.482196 0.876091 Br
0.383377 0.373609 0.346669 Cs
0.639095 0.374036 0.607369 Cs
0.606102 0.625522 0.382399 Cs
0.351387 0.629988 0.638062 Cs
0.396553 0.367429 0.622011 Cs
0.649286 0.375161 0.362538 Cs
0.616413 0.624634 0.652139 Cs
0.361129 0.627714 0.382734 Cs
0.249867 0.249063 0.249746 Pb
0.499203 0.249939 0.499728 Pb
0.500172 0.249686 0.249779 Pb
0.250267 0.250394 0.500176 Pb
0.500234 0.499437 0.249618 Pb
0.248864 0.500440 0.499713 Pb
0.249416 0.499336 0.249253 Pb
0.503527 0.492452 0.497055 Pb
0.483770 0.624275 0.729599 Br
0.735345 0.624585 0.479926 Br
0.732138 0.374803 0.736204 Br
0.464498 0.373351 0.484920 Br
0.262585 0.625136 0.259665 Br
0.516913 0.374795 0.270241 Br
0.269435 0.377020 0.522881 Br
0.373820 0.483355 0.722263 Br
0.626402 0.487035 0.472995 Br
0.475704 0.518482 0.373302 Br
0.724804 0.517877 0.623584 Br
0.525629 0.267844 0.625675 Br
0.275200 0.268049 0.376345 Br
0.625930 0.732430 0.274706 Br
0.374526 0.741826 0.529710 Br
0.373854 0.263247 0.728517 Br
0.622897 0.271913 0.475561 Br
0.475994 0.729881 0.374492 Br
0.724480 0.731631 0.623941 Br
0.626105 0.517535 0.275033 Br
0.525438 0.479737 0.623678 Br
0.277790 0.482920 0.377067 Br
0.438311 0.592377 0.518004 Br
