Cs64 Pb64 Br191
1.0
16.840035 0.000000 16.155961
0.000000 23.527616 0.000000
-16.840035 0.000000 16.155961
Cs Pb Br Cs Pb Br
56 56 168 8 8 23
direct
0.885998 0.875110 0.353561 Cs
0.135716 0.875093 0.603661 Cs
0.885545 0.375446 0.353471 Cs
0.135046 0.374911 0.604268 Cs
0.886418 0.875245 0.853944 Cs
0.135862 0.875138 0.103542 Cs
0.385861 0.875283 0.353453 Cs
0.636325 0.875561 0.603315 Cs
0.886070 0.374715 0.853784 Cs
0.136059 0.374853 0.103928 Cs
0.385847 0.875003 0.853694 Cs
0.636102 0.875112 0.103768 Cs
0.386049 0.372573 0.852306 Cs
0.638225 0.373945 0.103656 Cs
0.103018 0.124848 0.385826 Cs
0.353695 0.124344 0.636310 Cs
0.101855 0.625312 0.385883 Cs
0.103335 0.124802 0.886152 Cs
0.353609 0.124871 0.136019 Cs
0.603442 0.124910 0.385771 Cs
0.854296 0.124391 0.636263 Cs
0.103330 0.625171 0.885988 Cs
0.353196 0.625346 0.136065 Cs
0.856775 0.626308 0.637513 Cs
0.603767 0.125109 0.885780 Cs
0.853812 0.124909 0.136251 Cs
0.607450 0.625196 0.886015 Cs
0.853546 0.625202 0.136504 Cs
0.896593 0.875137 0.114083 Cs
0.146197 0.875184 0.363772 Cs
0.896751 0.374906 0.114029 Cs
0.146794 0.374846 0.364224 Cs
0.896219 0.875041 0.613858 Cs
0.146365 0.875163 0.864196 Cs
0.396379 0.875180 0.113869 Cs
0.646594 0.875375 0.363919 Cs
0.896317 0.375046 0.614414 Cs
0.146917 0.374784 0.863674 Cs
0.394048 0.374354 0.113388 Cs
0.396459 0.875184 0.614139 Cs
0.646405 0.875168 0.864301 Cs
0.646396 0.374569 0.863711 Cs
0.113781 0.124929 0.146381 Cs
0.363761 0.124692 0.396358 Cs
0.113979 0.625035 0.146320 Cs
0.114077 0.125000 0.646191 Cs
0.364036 0.124852 0.896511 Cs
0.614039 0.124927 0.146437 Cs
0.864163 0.124849 0.396335 Cs
0.112914 0.625436 0.646303 Cs
0.361806 0.625791 0.898211 Cs
0.614531 0.626310 0.146507 Cs
0.862392 0.625019 0.396634 Cs
0.613618 0.123743 0.646202 Cs
0.864388 0.124770 0.897327 Cs
0.864588 0.625303 0.897388 Cs
0.750271 0.750526 0.249877 Pb
0.999835 0.750133 0.499830 Pb
0.749957 0.250061 0.250181 Pb
0.999830 0.249739 0.499899 Pb
0.750485 0.750923 0.750639 Pb
0.000035 0.750134 0.000114 Pb
0.249735 0.750441 0.249823 Pb
0.499696 0.750604 0.500070 Pb
0.751381 0.248806 0.750692 Pb
0.000023 0.250062 0.000021 Pb
0.249706 0.750347 0.750227 Pb
0.500000 0.749775 0.999789 Pb
0.249345 0.248990 0.750517 Pb
0.500125 0.249891 0.000386 Pb
0.000045 0.750139 0.249996 Pb
0.249636 0.750737 0.499905 Pb
0.999965 0.250094 0.250032 Pb
0.000175 0.750515 0.750260 Pb
0.249770 0.750333 0.000145 Pb
0.499734 0.750674 0.249717 Pb
0.750276 0.750298 0.499687 Pb
0.999974 0.249707 0.750105 Pb
0.249748 0.249568 0.000059 Pb
0.750344 0.249419 0.500052 Pb
0.500041 0.749708 0.749879 Pb
0.750255 0.750462 0.000296 Pb
0.500150 0.249046 0.750324 Pb
0.750219 0.249553 0.000128 Pb
0.999976 0.000055 0.249996 Pb
0.249854 0.999721 0.499968 Pb
0.000008 0.499906 0.249984 Pb
0.000040 0.999955 0.750062 Pb
0.249931 0.999968 0.000036 Pb
0.499970 0.000315 0.249902 Pb
0.750085 0.000173 0.499914 Pb
0.000293 0.499722 0.750403 Pb
0.249608 0.499877 0.999953 Pb
0.749485 0.499857 0.503426 Pb
0.500083 0.999471 0.750184 Pb
0.750066 0.000050 0.000097 Pb
0.497178 0.502517 0.754607 Pb
0.750512 0.499934 0.001012 Pb
0.750110 0.000297 0.250026 Pb
0.999959 0.999867 0.500001 Pb
0.749940 0.499873 0.250461 Pb
0.999187 0.499796 0.499736 Pb
0.750205 0.999819 0.750179 Pb
0.000006 0.000063 0.000074 Pb
0.249904 0.000109 0.249963 Pb
0.499934 0.000214 0.499902 Pb
0.752130 0.500961 0.752387 Pb
0.000077 0.499975 0.000079 Pb
0.249850 0.999699 0.750048 Pb
0.500035 0.999825 -0.000006 Pb
0.249616 0.500233 0.750249 Pb
0.500490 0.499676 0.001219 Pb
0.984395 0.125178 0.230918 Br
0.233515 0.124538 0.480051 Br
0.984580 0.624886 0.230818 Br
0.232957 0.625475 0.480292 Br
0.984765 0.124983 0.730688 Br
0.234239 0.124909 0.980284 Br
0.484472 0.125705 0.230798 Br
0.733889 0.125132 0.479664 Br
0.985423 0.624982 0.732425 Br
0.233348 0.624869 0.981575 Br
0.484613 0.624548 0.230782 Br
0.484755 0.124807 0.731362 Br
0.733964 0.125019 0.980462 Br
0.735178 0.624896 0.981881 Br
0.230419 0.875140 0.234165 Br
0.480444 0.875251 0.484329 Br
0.231461 0.375203 0.234821 Br
0.230366 0.874610 0.734266 Br
0.480710 0.874405 0.983893 Br
0.730903 0.875291 0.234326 Br
0.980360 0.874768 0.484291 Br
0.233325 0.374719 0.733097 Br
0.479515 0.375605 0.983635 Br
0.729014 0.375201 0.236117 Br
0.979586 0.374863 0.484367 Br
0.729876 0.875173 0.734450 Br
0.980877 0.875034 0.984550 Br
0.980534 0.375134 0.984355 Br
0.769514 0.125370 0.265961 Br
0.019084 0.124909 0.515793 Br
0.768152 0.625044 0.265940 Br
0.017849 0.624624 0.516184 Br
0.770669 0.124670 0.766878 Br
0.019182 0.125149 0.015718 Br
0.269769 0.125050 0.265728 Br
0.519051 0.126001 0.515416 Br
0.769961 0.625724 0.767280 Br
0.019352 0.624948 0.015638 Br
0.269325 0.124547 0.765922 Br
0.519399 0.125178 0.015437 Br
0.268944 0.624690 0.767313 Br
0.520763 0.624109 0.014822 Br
0.015564 0.875003 0.269463 Br
0.265897 0.874915 0.520045 Br
0.015797 0.375164 0.270027 Br
0.016064 0.875106 0.769730 Br
0.265775 0.874933 0.019549 Br
0.515488 0.875141 0.269405 Br
0.765688 0.874872 0.518495 Br
0.016011 0.374906 0.769459 Br
0.265012 0.374969 0.018759 Br
0.763482 0.374669 0.523350 Br
0.515517 0.873728 0.769578 Br
0.765769 0.875055 0.019808 Br
0.516645 0.376722 0.762957 Br
0.766493 0.374841 0.019016 Br
0.873892 0.982150 0.224582 Br
0.123952 0.981887 0.474597 Br
0.873594 0.482014 0.224911 Br
0.121578 0.482286 0.474336 Br
0.873877 0.981835 0.724577 Br
0.123969 0.982111 0.974605 Br
0.373988 0.982095 0.224547 Br
0.623735 0.982201 0.474607 Br
0.874587 0.482149 0.726120 Br
0.124151 0.481913 0.974391 Br
0.374667 0.481965 0.224984 Br
0.374027 0.982005 0.724616 Br
0.623802 0.982095 0.974601 Br
0.623535 0.481834 0.974247 Br
0.974553 0.017877 0.373959 Br
0.224608 0.017989 0.623932 Br
0.973740 0.518215 0.373934 Br
0.222407 0.517633 0.623938 Br
0.974591 0.017899 0.873915 Br
0.224560 0.018059 0.123909 Br
0.474522 0.017985 0.373987 Br
0.724700 0.017932 0.623943 Br
0.974626 0.517881 0.874098 Br
0.224871 0.517697 0.123866 Br
0.474577 0.017803 0.873877 Br
0.724512 0.018067 0.123929 Br
0.474513 0.518636 0.869995 Br
0.723485 0.517562 0.124907 Br
0.025551 0.767914 0.126230 Br
0.275564 0.768061 0.376212 Br
0.025453 0.268026 0.126168 Br
0.025234 0.767843 0.626100 Br
0.275558 0.767939 0.876096 Br
0.525313 0.767826 0.125780 Br
0.775379 0.767856 0.375941 Br
0.025305 0.267805 0.626121 Br
0.275302 0.267831 0.876037 Br
0.525640 0.268880 0.126221 Br
0.774933 0.268606 0.376560 Br
0.525973 0.768315 0.626018 Br
0.775581 0.768286 0.876227 Br
0.775561 0.267584 0.876278 Br
0.126147 0.232116 0.275552 Br
0.375320 0.231200 0.525121 Br
0.126165 0.732061 0.275611 Br
0.126070 0.232006 0.775733 Br
0.376192 0.232113 0.025502 Br
0.626035 0.232372 0.275925 Br
0.875743 0.231961 0.525639 Br
0.126271 0.732179 0.775598 Br
0.376212 0.731828 0.025377 Br
0.875959 0.731966 0.525190 Br
0.626306 0.232890 0.773986 Br
0.876029 0.231993 0.025640 Br
0.626109 0.731788 0.774894 Br
0.876094 0.732098 0.025662 Br
0.873967 0.767909 0.224433 Br
0.123869 0.768068 0.474414 Br
0.873811 0.268216 0.224679 Br
0.123465 0.267598 0.474404 Br
0.874027 0.768301 0.724876 Br
0.124009 0.768003 0.974531 Br
0.373864 0.768010 0.224411 Br
0.623701 0.767946 0.474777 Br
0.874154 0.267673 0.724274 Br
0.123945 0.268000 0.974453 Br
0.374012 0.268049 0.224563 Br
0.374063 0.767892 0.724632 Br
0.623867 0.767751 0.974470 Br
0.623836 0.268170 0.974462 Br
0.974348 0.232125 0.373945 Br
0.225456 0.232612 0.623832 Br
0.974083 0.731784 0.373979 Br
0.223950 0.732224 0.623950 Br
0.974424 0.232072 0.873904 Br
0.224497 0.232030 0.123837 Br
0.474232 0.232394 0.373885 Br
0.725494 0.229035 0.624354 Br
0.974608 0.732263 0.873988 Br
0.224506 0.732134 0.123957 Br
0.474726 0.232435 0.874200 Br
0.724483 0.232131 0.124084 Br
0.475274 0.728660 0.873359 Br
0.724681 0.732291 0.123845 Br
0.126163 0.017982 0.275473 Br
0.376164 0.017972 0.525453 Br
0.126350 0.517831 0.275825 Br
0.126181 0.017953 0.775459 Br
0.376168 0.017930 0.025441 Br
0.626000 0.017964 0.275456 Br
0.876036 0.017895 0.525392 Br
0.126954 0.517490 0.775706 Br
0.376637 0.518182 0.025311 Br
0.873067 0.518003 0.525234 Br
0.626009 0.017934 0.775479 Br
0.876060 0.017957 0.025563 Br
0.624455 0.518241 0.770260 Br
0.876050 0.517982 0.025938 Br
0.025468 0.982130 0.126150 Br
0.275436 0.981970 0.376167 Br
0.025527 0.481989 0.126325 Br
0.025383 0.982053 0.626122 Br
0.275510 0.981961 0.876105 Br
0.525433 0.982089 0.126118 Br
0.775448 0.982102 0.376108 Br
0.024383 0.482199 0.626084 Br
0.276957 0.481468 0.875770 Br
0.526071 0.481552 0.125030 Br
0.771468 0.481346 0.377538 Br
0.525407 0.982139 0.626106 Br
0.775442 0.981853 0.876125 Br
0.775412 0.482118 0.877811 Br
0.384919 0.373620 0.352256 Cs
0.639389 0.364538 0.612616 Cs
0.603764 0.629390 0.385544 Cs
0.349462 0.628369 0.636620 Cs
0.382099 0.367442 0.613916 Cs
0.646497 0.376508 0.367819 Cs
0.620052 0.629570 0.642753 Cs
0.361782 0.627157 0.396141 Cs
0.249857 0.249582 0.249929 Pb
0.499395 0.249867 0.499466 Pb
0.500220 0.250277 0.249880 Pb
0.249047 0.248899 0.499307 Pb
0.500737 0.499604 0.246783 Pb
0.247234 0.501070 0.500118 Pb
0.249837 0.500251 0.250218 Pb
0.493768 0.500821 0.495210 Pb
0.486113 0.623677 0.721526 Br
0.731743 0.624332 0.481720 Br
0.735180 0.375184 0.737621 Br
0.473609 0.376353 0.488184 Br
0.269226 0.625180 0.265221 Br
0.517783 0.624101 0.516430 Br
0.516682 0.376066 0.271222 Br
0.260471 0.375151 0.514835 Br
0.374785 0.481832 0.721250 Br
0.477277 0.519079 0.376168 Br
0.731810 0.521862 0.627206 Br
0.521174 0.267220 0.626111 Br
0.275405 0.267432 0.375999 Br
0.625947 0.733527 0.274236 Br
0.376018 0.732180 0.525311 Br
0.373940 0.264944 0.727307 Br
0.623282 0.269160 0.477013 Br
0.474476 0.731971 0.373919 Br
0.727539 0.735023 0.623962 Br
0.625268 0.518567 0.277132 Br
0.372898 0.517023 0.532534 Br
0.277346 0.483785 0.376587 Br
0.617653 0.480691 0.505494 Br
