Cs4 Pb4 Br12                            
   1.0000000000000000     
     8.2268332481287523    0.0000000000000000    0.0000000000000000
     0.0000000000000000   11.9990839403324063    0.0000000000000000
     0.0000000000000000    0.0000000000000000    8.2395401647844757
   Cs   Pb   Br
     4     4    12
Direct
  0.0500902596532100  0.2500000000000000  0.4914910972319149
  0.4499097403467900  0.7500000000000000  0.9914910972319149
  0.5500902596532100  0.2500000000000000  0.0085089027680851
  0.9499097403467900  0.7500000000000000  0.5085089027680851
  0.0000000000000000  0.0000000000000000  0.0000000000000000
  0.5000000000000000  0.0000000000000000  0.5000000000000000
  0.5000000000000000  0.5000000000000000  0.5000000000000000
  0.0000000000000000  0.5000000000000000  0.0000000000000000
  0.5011924816264539  0.7500000000000000  0.4476286692510598
  0.9988075183735461  0.2500000000000000  0.9476286692510598
  0.0011924816264539  0.7500000000000000  0.0523713307489402
  0.4988075183735461  0.2500000000000000  0.5523713307489402
  0.3039043404204378  0.4719182859454776  0.1963344671608027
  0.1960956595795622  0.5280817140545224  0.6963344671608027
  0.8039043404204378  0.0280817140545224  0.3036655328391973
  0.6960956595795622  0.9719182859454776  0.8036655328391973
  0.3039043404204378  0.0280817140545224  0.1963344671608027
  0.1960956595795622  0.9719182859454776  0.6963344671608027
  0.6960956595795622  0.5280817140545224  0.8036655328391973
  0.8039043404204378  0.4719182859454776  0.3036655328391973

  0.00000000E+00  0.00000000E+00  0.00000000E+00
  0.00000000E+00  0.00000000E+00  0.00000000E+00
  0.00000000E+00  0.00000000E+00  0.00000000E+00
  0.00000000E+00  0.00000000E+00  0.00000000E+00
  0.00000000E+00  0.00000000E+00  0.00000000E+00
  0.00000000E+00  0.00000000E+00  0.00000000E+00
  0.00000000E+00  0.00000000E+00  0.00000000E+00
  0.00000000E+00  0.00000000E+00  0.00000000E+00
  0.00000000E+00  0.00000000E+00  0.00000000E+00
  0.00000000E+00  0.00000000E+00  0.00000000E+00
  0.00000000E+00  0.00000000E+00  0.00000000E+00
  0.00000000E+00  0.00000000E+00  0.00000000E+00
  0.00000000E+00  0.00000000E+00  0.00000000E+00
  0.00000000E+00  0.00000000E+00  0.00000000E+00
  0.00000000E+00  0.00000000E+00  0.00000000E+00
  0.00000000E+00  0.00000000E+00  0.00000000E+00
  0.00000000E+00  0.00000000E+00  0.00000000E+00
  0.00000000E+00  0.00000000E+00  0.00000000E+00
  0.00000000E+00  0.00000000E+00  0.00000000E+00
  0.00000000E+00  0.00000000E+00  0.00000000E+00
