Cs4 Pb4 Br12                            
   1.0000000000000000     
     8.2268332481287523    0.0000000000000000    0.0000000000000000
     0.0000000000000000   11.9990839403324063    0.0000000000000000
     0.0000000000000000    0.0000000000000000    8.2395401647844757
   Cs   Pb   Br
     4     4    12
Direct
  0.0500902596532110  0.2500000000000000  0.4914910972319173
  0.4499097403467890  0.7500000000000000  0.9914910972319172
  0.5500902596532110  0.2500000000000000  0.0085089027680828
  0.9499097403467890  0.7500000000000000  0.5085089027680828
  0.0000000000000000  0.0000000000000000  0.0000000000000000
  0.5000000000000000  0.0000000000000000  0.5000000000000000
  0.5000000000000000  0.5000000000000000  0.5000000000000000
  0.0000000000000000  0.5000000000000000  0.0000000000000000
  0.5011924816264535  0.7500000000000000  0.4476286692510614
  0.9988075183735465  0.2500000000000000  0.9476286692510614
  0.0011924816264535  0.7500000000000000  0.0523713307489386
  0.4988075183735465  0.2500000000000000  0.5523713307489386
  0.3039043404204390  0.4719182859454787  0.1963344671608021
  0.1960956595795610  0.5280817140545212  0.6963344671608021
  0.8039043404204390  0.0280817140545212  0.3036655328391979
  0.6960956595795610  0.9719182859454788  0.8036655328391979
  0.3039043404204390  0.0280817140545212  0.1963344671608021
  0.1960956595795610  0.9719182859454788  0.6963344671608021
  0.6960956595795610  0.5280817140545212  0.8036655328391979
  0.8039043404204390  0.4719182859454787  0.3036655328391979

  0.00000000E+00  0.00000000E+00  0.00000000E+00
  0.00000000E+00  0.00000000E+00  0.00000000E+00
  0.00000000E+00  0.00000000E+00  0.00000000E+00
  0.00000000E+00  0.00000000E+00  0.00000000E+00
  0.00000000E+00  0.00000000E+00  0.00000000E+00
  0.00000000E+00  0.00000000E+00  0.00000000E+00
  0.00000000E+00  0.00000000E+00  0.00000000E+00
  0.00000000E+00  0.00000000E+00  0.00000000E+00
  0.00000000E+00  0.00000000E+00  0.00000000E+00
  0.00000000E+00  0.00000000E+00  0.00000000E+00
  0.00000000E+00  0.00000000E+00  0.00000000E+00
  0.00000000E+00  0.00000000E+00  0.00000000E+00
  0.00000000E+00  0.00000000E+00  0.00000000E+00
  0.00000000E+00  0.00000000E+00  0.00000000E+00
  0.00000000E+00  0.00000000E+00  0.00000000E+00
  0.00000000E+00  0.00000000E+00  0.00000000E+00
  0.00000000E+00  0.00000000E+00  0.00000000E+00
  0.00000000E+00  0.00000000E+00  0.00000000E+00
  0.00000000E+00  0.00000000E+00  0.00000000E+00
  0.00000000E+00  0.00000000E+00  0.00000000E+00
