Cs2 Pb2 Br6                             
   1.0000000000000000     
     5.7802902043663176    5.7802902043663176   -0.1794603561706910
     5.9601852544202725   -0.0011947874744474   -5.9467994101025772
    -0.0011947874744473    5.9601852544202725   -5.9467994101025772
   Cs   Pb   Br
     2     2     6
Direct
  0.7500000000000000  0.7483542453888106  0.7516457546111894
  0.2500000000000000  0.2516457546111894  0.2483542453888106
  0.0000000000000000  0.0000000000000000  0.0000000000000000
  0.5000000000000000  0.5000000000000000  0.5000000000000000
  0.2551425270049705  0.6864374387197927  0.2449723093348695
  0.7448574729950295  0.3135625612802073  0.7550276906651305
  0.2500000000000000  0.8172259676592972  0.6827740323407028
  0.7500000000000000  0.1827740323407028  0.3172259676592972
  0.2448574729950295  0.2550276906651305  0.8135625612802073
  0.7551425270049705  0.7449723093348695  0.1864374387197927

  0.00000000E+00  0.00000000E+00 -0.00000000E+00
  0.00000000E+00  0.00000000E+00 -0.00000000E+00
  0.00000000E+00  0.00000000E+00 -0.00000000E+00
  0.00000000E+00  0.00000000E+00 -0.00000000E+00
  0.00000000E+00  0.00000000E+00 -0.00000000E+00
  0.00000000E+00  0.00000000E+00 -0.00000000E+00
  0.00000000E+00  0.00000000E+00 -0.00000000E+00
  0.00000000E+00  0.00000000E+00 -0.00000000E+00
  0.00000000E+00  0.00000000E+00 -0.00000000E+00
  0.00000000E+00  0.00000000E+00 -0.00000000E+00
