Cs2 Pb2 Br6                             
   1.0000000000000000     
     5.7802902043663176    5.7802902043663176   -0.1794603561706910
     5.9601852544202725   -0.0011947874744474   -5.9467994101025772
    -0.0011947874744473    5.9601852544202725   -5.9467994101025772
   Cs   Pb   Br
     2     2     6
Direct
  0.7500000000000000  0.7483542453888078  0.7516457546111922
  0.2500000000000000  0.2516457546111922  0.2483542453888079
  0.0000000000000000  0.0000000000000000 -0.0000000000000000
  0.5000000000000000  0.5000000000000000  0.5000000000000000
  0.2551425270049711  0.6864374387197957  0.2449723093348672
  0.7448574729950286  0.3135625612802043  0.7550276906651328
  0.2500000000000000  0.8172259676592958  0.6827740323407042
  0.7500000000000000  0.1827740323407042  0.3172259676592959
  0.2448574729950287  0.2550276906651330  0.8135625612802043
  0.7551425270049714  0.7449723093348672  0.1864374387197957

  0.00000000E+00  0.00000000E+00 -0.00000000E+00
  0.00000000E+00  0.00000000E+00 -0.00000000E+00
  0.00000000E+00  0.00000000E+00 -0.00000000E+00
  0.00000000E+00  0.00000000E+00 -0.00000000E+00
  0.00000000E+00  0.00000000E+00 -0.00000000E+00
  0.00000000E+00  0.00000000E+00 -0.00000000E+00
  0.00000000E+00  0.00000000E+00 -0.00000000E+00
  0.00000000E+00  0.00000000E+00 -0.00000000E+00
  0.00000000E+00  0.00000000E+00 -0.00000000E+00
  0.00000000E+00  0.00000000E+00 -0.00000000E+00
