Cs64 Pb64 Br191
1.0
16.840035 0.000000 16.155961
0.000000 23.527616 0.000000
-16.840035 0.000000 16.155961
Cs Pb Br Cs Pb Br
56 56 168 8 8 23
direct
0.885884 0.875032 0.353550 Cs
0.135865 0.875117 0.603676 Cs
0.886249 0.374887 0.353125 Cs
0.135621 0.374981 0.603872 Cs
0.886256 0.875078 0.853645 Cs
0.135811 0.875062 0.103316 Cs
0.385730 0.875389 0.353699 Cs
0.636026 0.875402 0.603505 Cs
0.885786 0.374981 0.853321 Cs
0.136146 0.374797 0.104055 Cs
0.385904 0.875148 0.853561 Cs
0.635989 0.874998 0.103716 Cs
0.385818 0.374107 0.853202 Cs
0.637324 0.374702 0.102494 Cs
0.103608 0.124944 0.385999 Cs
0.353522 0.124760 0.635992 Cs
0.100198 0.625187 0.385772 Cs
0.103385 0.124880 0.885983 Cs
0.353453 0.124689 0.135620 Cs
0.603336 0.124796 0.385981 Cs
0.853928 0.124689 0.636215 Cs
0.103529 0.625070 0.885847 Cs
0.354541 0.625219 0.136375 Cs
0.853285 0.624632 0.635369 Cs
0.603602 0.124981 0.885929 Cs
0.853764 0.124843 0.135871 Cs
0.605555 0.625855 0.886337 Cs
0.853815 0.625257 0.136237 Cs
0.896541 0.875224 0.113832 Cs
0.146174 0.875143 0.363833 Cs
0.896481 0.374729 0.113502 Cs
0.146303 0.374900 0.364302 Cs
0.896792 0.875116 0.614152 Cs
0.146159 0.875097 0.863910 Cs
0.396218 0.875251 0.113759 Cs
0.646568 0.876228 0.363235 Cs
0.895222 0.374652 0.613747 Cs
0.146274 0.374825 0.863722 Cs
0.392743 0.375059 0.114057 Cs
0.396398 0.875121 0.614186 Cs
0.646350 0.875116 0.864081 Cs
0.646889 0.374778 0.864209 Cs
0.113616 0.124689 0.146063 Cs
0.363425 0.124238 0.396717 Cs
0.114082 0.624771 0.146123 Cs
0.113890 0.124841 0.646276 Cs
0.363904 0.124874 0.896434 Cs
0.614168 0.124890 0.146179 Cs
0.864192 0.124851 0.396437 Cs
0.113366 0.625014 0.646042 Cs
0.362997 0.625642 0.896540 Cs
0.614089 0.627881 0.146011 Cs
0.863867 0.625187 0.396486 Cs
0.613800 0.124633 0.646234 Cs
0.864218 0.124804 0.896700 Cs
0.864010 0.625157 0.896163 Cs
0.750959 0.751068 0.249460 Pb
0.999882 0.750140 0.500074 Pb
0.750315 0.249843 0.249684 Pb
-0.000057 0.249619 0.500019 Pb
0.750182 0.750525 0.750044 Pb
0.000006 0.749940 0.999954 Pb
0.249539 0.750223 0.249661 Pb
0.499979 0.750602 0.500019 Pb
0.750587 0.249006 0.750546 Pb
-0.000009 0.249939 0.999893 Pb
0.249735 0.750340 0.750147 Pb
0.499785 0.750302 0.999620 Pb
0.249771 0.249533 0.750214 Pb
0.499938 0.250022 0.000189 Pb
0.000207 0.750170 0.249932 Pb
0.249547 0.750388 0.500163 Pb
0.999886 0.249722 0.249871 Pb
-0.000052 0.749974 0.749999 Pb
0.249822 0.750230 0.999940 Pb
0.499327 0.750866 0.249687 Pb
0.750470 0.751238 0.500430 Pb
-0.000043 0.249815 0.749993 Pb
0.249764 0.249653 0.999692 Pb
0.750113 0.249568 0.499956 Pb
0.499896 0.750171 0.750067 Pb
0.750266 0.750433 0.999927 Pb
0.499880 0.249526 0.750210 Pb
0.750151 0.249620 0.999945 Pb
0.999980 0.999984 0.249975 Pb
0.249867 0.999686 0.500079 Pb
0.000119 0.499686 0.249854 Pb
0.000010 0.999928 0.750009 Pb
0.249881 0.999860 0.999902 Pb
0.499863 0.000241 0.249846 Pb
0.750058 0.000386 0.500009 Pb
0.999776 0.500007 0.749893 Pb
0.249682 0.500180 0.999758 Pb
0.745228 0.499923 0.498428 Pb
0.499996 0.999881 0.750053 Pb
0.750037 0.000028 0.999964 Pb
0.499925 0.500368 0.750595 Pb
0.750533 0.500217 0.000094 Pb
0.750186 0.000455 0.249935 Pb
0.999971 0.999811 0.499959 Pb
0.750795 0.500212 0.249498 Pb
0.997372 0.499392 0.499823 Pb
0.750071 0.999695 0.750035 Pb
0.999975 0.999902 0.999951 Pb
0.249808 0.999731 0.249832 Pb
0.499962 0.000330 0.500016 Pb
0.750063 0.500447 0.749823 Pb
0.000011 0.499872 0.999828 Pb
0.249908 0.999942 0.750015 Pb
0.500011 0.000153 0.999966 Pb
0.249730 0.499932 0.750264 Pb
0.499658 0.500187 0.996969 Pb
0.984206 0.124971 0.230433 Br
0.233827 0.124654 0.481522 Br
0.984774 0.624767 0.231059 Br
0.231399 0.625300 0.479359 Br
0.984476 0.124937 0.730528 Br
0.234214 0.124916 0.980377 Br
0.484424 0.125760 0.230087 Br
0.733760 0.125239 0.479890 Br
0.983978 0.624889 0.730210 Br
0.233912 0.624983 0.980690 Br
0.484560 0.623254 0.236203 Br
0.484368 0.125074 0.730688 Br
0.734048 0.125073 0.980380 Br
0.734741 0.625074 0.981155 Br
0.230273 0.874563 0.234006 Br
0.480378 0.875096 0.484414 Br
0.232491 0.374663 0.235402 Br
0.230415 0.874882 0.734207 Br
0.480692 0.874947 0.984249 Br
0.731610 0.875831 0.233793 Br
0.980336 0.874645 0.484089 Br
0.231609 0.374978 0.733903 Br
0.479206 0.375817 0.985126 Br
0.731023 0.375716 0.232689 Br
0.979371 0.374556 0.484096 Br
0.729925 0.874904 0.734091 Br
0.980742 0.874840 0.984294 Br
0.980477 0.375025 0.983901 Br
0.769763 0.125766 0.265731 Br
0.019278 0.124755 0.515550 Br
0.768188 0.625708 0.266376 Br
0.016590 0.624238 0.516191 Br
0.769930 0.124539 0.766193 Br
0.019068 0.124990 0.015501 Br
0.269851 0.124431 0.265314 Br
0.518777 0.126172 0.515433 Br
0.768894 0.625037 0.765137 Br
0.019419 0.624788 0.015567 Br
0.269611 0.124888 0.765710 Br
0.519325 0.125562 0.015910 Br
0.268034 0.624871 0.766793 Br
0.519443 0.624373 0.015279 Br
0.015586 0.874916 0.269498 Br
0.266005 0.874589 0.519769 Br
0.016139 0.374897 0.269479 Br
0.015633 0.874859 0.769136 Br
0.265740 0.874899 0.019524 Br
0.514895 0.874949 0.269319 Br
0.766208 0.875450 0.519830 Br
0.015393 0.375064 0.769064 Br
0.264814 0.375060 0.018605 Br
0.762257 0.375373 0.519112 Br
0.515571 0.874535 0.769185 Br
0.765621 0.875109 0.019667 Br
0.516389 0.375646 0.768257 Br
0.765989 0.375118 0.018461 Br
0.873860 0.982166 0.224515 Br
0.123935 0.981903 0.474522 Br
0.874262 0.482154 0.224027 Br
0.120300 0.482327 0.474943 Br
0.873824 0.981955 0.724529 Br
0.123933 0.982036 0.974504 Br
0.373970 0.982041 0.224487 Br
0.623783 0.982188 0.474558 Br
0.873519 0.482817 0.723686 Br
0.123966 0.482006 0.974577 Br
0.376614 0.481380 0.230266 Br
0.373967 0.982031 0.724532 Br
0.623809 0.982088 0.974574 Br
0.623351 0.481844 0.974953 Br
0.974562 0.017886 0.373878 Br
0.224545 0.017845 0.623891 Br
0.973791 0.517753 0.373743 Br
0.224528 0.517951 0.623616 Br
0.974555 0.017853 0.873863 Br
0.224511 0.017933 0.123896 Br
0.474520 0.017937 0.373835 Br
0.724516 0.018085 0.623847 Br
0.974488 0.517948 0.873824 Br
0.226243 0.517674 0.124150 Br
0.474557 0.017946 0.873888 Br
0.724514 0.018069 0.123899 Br
0.474938 0.517878 0.873262 Br
0.723983 0.518582 0.123765 Br
0.025553 0.767822 0.126137 Br
0.275656 0.767956 0.376131 Br
0.025421 0.267995 0.126066 Br
0.025489 0.767920 0.625988 Br
0.275538 0.767997 0.876072 Br
0.524866 0.767587 0.125935 Br
0.774476 0.767694 0.376110 Br
0.025307 0.267939 0.625990 Br
0.275468 0.267905 0.876141 Br
0.524933 0.270655 0.126510 Br
0.775938 0.267724 0.376130 Br
0.525592 0.767769 0.625918 Br
0.775490 0.768027 0.876022 Br
0.775575 0.267592 0.876184 Br
0.126016 0.231924 0.275147 Br
0.375756 0.232005 0.525180 Br
0.126290 0.731830 0.275642 Br
0.126143 0.232062 0.775530 Br
0.376114 0.232219 0.025598 Br
0.625979 0.231841 0.275393 Br
0.875690 0.232080 0.525601 Br
0.126075 0.732090 0.775376 Br
0.376143 0.731844 0.025427 Br
0.875972 0.732314 0.525440 Br
0.626080 0.232321 0.774948 Br
0.875973 0.232019 0.025506 Br
0.625927 0.732077 0.775368 Br
0.876058 0.732038 0.025438 Br
0.874330 0.768060 0.224220 Br
0.123960 0.768041 0.474480 Br
0.873767 0.268053 0.224360 Br
0.123627 0.267957 0.474716 Br
0.873776 0.767938 0.724434 Br
0.123962 0.767963 0.974467 Br
0.373850 0.767916 0.224258 Br
0.623845 0.769673 0.474335 Br
0.873900 0.267652 0.724398 Br
0.123898 0.267957 0.974472 Br
0.373941 0.267387 0.224244 Br
0.373907 0.767847 0.724476 Br
0.623795 0.767829 0.974645 Br
0.623744 0.268158 0.974645 Br
0.974531 0.232006 0.373828 Br
0.224497 0.232170 0.624147 Br
0.974203 0.732175 0.373884 Br
0.224321 0.731894 0.623825 Br
0.974445 0.232052 0.873848 Br
0.224211 0.231927 0.123754 Br
0.473967 0.231407 0.373792 Br
0.724883 0.231383 0.623988 Br
0.974559 0.732016 0.873859 Br
0.224622 0.731836 0.123956 Br
0.474527 0.232274 0.874183 Br
0.724378 0.232087 0.123954 Br
0.474502 0.731611 0.873718 Br
0.725172 0.732418 0.123822 Br
0.126155 0.017982 0.275429 Br
0.376152 0.017862 0.525433 Br
0.126897 0.517551 0.276320 Br
0.126125 0.017945 0.775412 Br
0.376161 0.017869 0.025341 Br
0.625950 0.017976 0.275372 Br
0.876026 0.018041 0.525384 Br
0.126258 0.517685 0.775152 Br
0.376532 0.518141 0.025126 Br
0.868782 0.515690 0.523615 Br
0.625992 0.017978 0.775402 Br
0.876031 0.017899 0.025409 Br
0.625518 0.518011 0.775488 Br
0.875838 0.518020 0.025533 Br
0.025434 0.982038 0.126092 Br
0.275331 0.982023 0.376091 Br
0.025656 0.482014 0.126164 Br
0.025420 0.982041 0.626022 Br
0.275453 0.981982 0.876083 Br
0.525441 0.982066 0.126133 Br
0.775410 0.982085 0.376069 Br
0.024156 0.481865 0.625625 Br
0.275861 0.481968 0.875877 Br
0.523723 0.481537 0.129360 Br
0.775168 0.481936 0.375888 Br
0.525398 0.982193 0.625995 Br
0.775403 0.981858 0.876073 Br
0.775207 0.482584 0.875730 Br
0.380305 0.366962 0.351657 Cs
0.638962 0.368927 0.610236 Cs
0.613572 0.634605 0.383557 Cs
0.350976 0.625882 0.637448 Cs
0.391993 0.372880 0.613898 Cs
0.650479 0.371260 0.363264 Cs
0.614225 0.627749 0.646453 Cs
0.360064 0.629470 0.396725 Cs
0.249347 0.248735 0.249305 Pb
0.499587 0.250453 0.499690 Pb
0.500182 0.249653 0.249863 Pb
0.249388 0.249302 0.500411 Pb
0.503756 0.497761 0.245555 Pb
0.247993 0.500864 0.499774 Pb
0.249966 0.500065 0.250486 Pb
0.500341 0.499587 0.505379 Pb
0.483715 0.624227 0.729357 Br
0.735831 0.625380 0.482967 Br
0.733656 0.374721 0.736969 Br
0.474795 0.376995 0.482968 Br
0.270049 0.624759 0.265270 Br
0.522411 0.624420 0.510610 Br
0.515643 0.375815 0.276215 Br
0.264132 0.375489 0.516740 Br
0.374644 0.482029 0.724193 Br
0.719848 0.515637 0.623041 Br
0.522968 0.268214 0.625966 Br
0.272109 0.264089 0.376054 Br
0.626109 0.736640 0.271355 Br
0.376282 0.730826 0.525229 Br
0.373963 0.267500 0.725179 Br
0.623363 0.269023 0.476152 Br
0.474789 0.731800 0.373852 Br
0.724731 0.732574 0.623852 Br
0.626574 0.521747 0.273220 Br
0.373596 0.521949 0.523757 Br
0.530313 0.481799 0.622124 Br
0.278933 0.482882 0.376281 Br
0.612503 0.489271 0.453273 Br
