Cs4 Pb4 Br12                            
   1.0000000000000000     
     8.2371158136575868    0.0000000000000000    0.0000000000000000
     0.0000000000000000   11.6633931642872710    0.0000000000000000
     0.0000000000000000    0.0000000000000000    8.4010997758586825
   Cs   Pb   Br
     4     4    12
Direct
  0.0495068267164172  0.2500000000000000  0.4899915148889278
  0.4504931732835828  0.7500000000000000  0.9899915148889278
  0.5495068267164172  0.2500000000000000  0.0100084851110722
  0.9504931732835828  0.7500000000000000  0.5100084851110722
  0.0000000000000000  0.0000000000000000  0.0000000000000000
  0.5000000000000000  0.0000000000000000  0.5000000000000000
  0.5000000000000000  0.5000000000000000  0.5000000000000000
  0.0000000000000000  0.5000000000000000  0.0000000000000000
  0.5067895851651798  0.7500000000000000  0.4242226958228841
  0.9932104148348202  0.2500000000000000  0.9242226958228841
  0.0067895851651798  0.7500000000000000  0.0757773041771159
  0.4932104148348202  0.2500000000000000  0.5757773041771159
  0.2889050397508726  0.4613439343935113  0.2125828370011078
  0.2110949602491274  0.5386560656064887  0.7125828370011078
  0.7889050397508726  0.0386560656064887  0.2874171629988922
  0.7110949602491274  0.9613439343935113  0.7874171629988922
  0.2889050397508726  0.0386560656064887  0.2125828370011078
  0.2110949602491274  0.9613439343935113  0.7125828370011078
  0.7110949602491274  0.5386560656064887  0.7874171629988922
  0.7889050397508726  0.4613439343935113  0.2874171629988922

  0.00000000E+00  0.00000000E+00  0.00000000E+00
  0.00000000E+00  0.00000000E+00  0.00000000E+00
  0.00000000E+00  0.00000000E+00  0.00000000E+00
  0.00000000E+00  0.00000000E+00  0.00000000E+00
  0.00000000E+00  0.00000000E+00  0.00000000E+00
  0.00000000E+00  0.00000000E+00  0.00000000E+00
  0.00000000E+00  0.00000000E+00  0.00000000E+00
  0.00000000E+00  0.00000000E+00  0.00000000E+00
  0.00000000E+00  0.00000000E+00  0.00000000E+00
  0.00000000E+00  0.00000000E+00  0.00000000E+00
  0.00000000E+00  0.00000000E+00  0.00000000E+00
  0.00000000E+00  0.00000000E+00  0.00000000E+00
  0.00000000E+00  0.00000000E+00  0.00000000E+00
  0.00000000E+00  0.00000000E+00  0.00000000E+00
  0.00000000E+00  0.00000000E+00  0.00000000E+00
  0.00000000E+00  0.00000000E+00  0.00000000E+00
  0.00000000E+00  0.00000000E+00  0.00000000E+00
  0.00000000E+00  0.00000000E+00  0.00000000E+00
  0.00000000E+00  0.00000000E+00  0.00000000E+00
  0.00000000E+00  0.00000000E+00  0.00000000E+00
