Geometry = GenFormat {
39  S
Cs   Pb   Br
1      1      0.838636908802217      2.935387684935651      2.922968057358969
2      1      0.778659763727979      2.924414565906148     10.271921549742917
3      1     -5.308771773943564      8.650720023850345      6.606644467512918
4      1     -3.169295622664174      2.886455056697948      7.919789912582107
5      1      4.979598967768811      2.921453838169386      8.069338085901119
6      1     -0.728760922023617      8.718774061308945     11.520308566637302
7      2     -0.271204777437302     -0.170114691433437      0.005331307438068
8      2      0.448408400020203     -0.201336401967580      7.139070271774917
9      2      4.437168075013219     -0.111362151256428      3.137336217582886
10     2     -4.001312279874258     -0.206922114131373      4.113295635777428
11     2      4.405784741410541      5.551114819978182      3.216248797396912
12     2     -4.007487295961539      5.648765982384830      4.054425481809943
13     2     -0.272750229272940      5.608220118251795     -0.228438515791052
14     2      0.419544888541626      5.659621015100311      6.977130829753605
15     3     -4.047172974745773      9.027117983277549     10.131497148437276
16     3      4.366311899466614      9.020962152294677     10.710807502695422
17     3     -0.330062259141422      3.146110482420686     13.994518809404166
18     3      0.159117682201543      3.204582017891517      6.553535858061580
19     3     -0.070289031145817      9.007529273440005      0.492072593858091
20     3      0.346900035002799      8.982094688830131      7.700476350912450
21     3      4.251043186943945      3.200498505228171      4.014133637525148
22     3     -4.397883594054413      3.205503189327344      4.456670540039761
23     3     -5.525680354140050      5.150506458123928      8.462478191276199
24     3      2.496737367006529      5.451887947136303      8.356982116823913
25     3      1.587955807801602      6.150828758778655      4.836873841793813
26     3      1.128870290969860      6.035307944050880     12.327451916137527
27     3     -1.707265137915229      0.265511176407586      9.655151319195344
28     3     -1.921501892033307      0.420652681072740      2.915444239352483
29     3      6.046674662665390     11.361775961951388      6.129784214350598
30     3     -2.830832934287080     11.079321045749667      6.256272709727159
31     3     -5.492710706145966      0.453571672414508      8.438759764114900
32     3      2.497348906873688      0.242103520451700      8.500825665239706
33     3      1.613948086262489     11.191546329410473      4.931217544769309
34     3      1.126242361302137     11.307290963056104     12.520379801002994
35     3      5.995479784061440      5.984724975985994      6.067889845785633
36     3     -2.868286608266552      6.129305447828533      6.183538956357694
37     3     -1.729804207417506      5.394291460997129      9.668646558750194
38     3     -1.898650383199012      5.333789771685285      2.781646002186946
39     1      2.952676397163200      8.699660784394380      6.333556443118203
0.000000000000000      0.000000000000000      0.000000000000000
8.515675999999999      0.000000000000000      7.292245000000000
0.000000000000000     11.609372000000000      0.000000000000000
-8.515675999999999      0.000000000000000      7.292245000000000
}
Hamiltonian = DFTB {
  Filling = Fermi {
    Temperature [Kelvin] = 20.0
    IndependentKFilling = No
  }
  KPointsAndWeights = SupercellFolding {
2 0 0 0 2 0 0 0 2 0.0 0.0 0.0
  }
  MaxAngularMomentum = {
    Br = "p"
    Cs = "s"
    Pb = "p"
  }
  MaxSCCIterations = 1500
  ReadInitialCharges = No
  SCC = Yes
  SCCTolerance = 1.0E-006
  ShellResolvedSCC = Yes
  SlaterKosterFiles = Type2FileNames {
    Prefix = /Users/tjams20/Documents/UBath/DFTB/DFTB_CCS/DFTB_PARAMS/Cs_w3_00_c9_00_Pb_w3_00_c9_00_Br_w3_00_c9_00/
    Separator = "-"
    Suffix = ".skf"
    LowerCaseTypeName = No
  }
  PolynomialRepulsive = {}
  OldSKInterpolation = No
  RangeSeparated = None {}
  InitialCharges = {}
  EwaldParameter = 0.0000000000000000
  EwaldTolerance = 1.0000000000000001E-009
  HCorrection = None {}
  SpinPolarisation = {}
  ElectricField = {}
  Solver = RelativelyRobust {}
  Charge = 0.0000000000000000
  OnSiteCorrection = {}
  Dispersion = {}
  Solvation = {}
  Electrostatics = GammaFunctional {}
  ThirdOrder = No
  ThirdOrderFull = No
  Differentiation = FiniteDiff {
    Delta = 1.2207031250000000E-004
  }
  ForceEvaluation = "Traditional"
  Mixer = Broyden {
    MixingParameter = 0.20000000000000001
    InverseJacobiWeight = 1.0000000000000000E-002
    MinimalWeight = 1.0000000000000000
    MaximalWeight = 100000.00000000000
    WeightFactor = 1.0000000000000000E-002
  }
}
Options = {
  WriteResultsTag = Yes
  WriteDetailedOut = Yes
  WriteAutotestTag = No
  WriteDetailedXML = No
  RestartFrequency = 20
  RandomSeed = 0
  WriteHS = No
  WriteRealHS = No
  MinimiseMemoryUsage = No
  ShowFoldedCoords = No
  TimingVerbosity = 1
  WriteChargesAsText = No
}
ParserOptions = {
  IgnoreUnprocessedNodes = Yes
  ParserVersion = 9
  WriteHSDInput = Yes
  StopAfterParsing = No
}
Analysis = {
  CalculateForces = Yes
  ProjectStates = {}
  WriteEigenvectors = No
  WriteBandOut = Yes
  MullikenAnalysis = Yes
  WriteNetCharges = No
  AtomResolvedEnergies = No
  EigenvectorsAsText = No
}
Reks = None {}
Driver = {}
ExcitedState = {}
