Cs7 Pb8 Br24                            
   1.0000000000000000     
     8.4200180000000007    0.0000000000000000    8.0779809999999994
     0.0000000000000000   11.7638079999999992    0.0000000000000000
    -8.4200180000000007    0.0000000000000000    8.0779809999999994
   Cs   Pb   Br   Cs
     6     8    24     1
Direct
  0.2709329999999994  0.2472440000000020  0.1954240000000027
  0.7661820000000006  0.2445039999999992  0.7470399999999984
  0.2230210000000028  0.7674430000000001  0.7687000000000026
  0.2771940000000015  0.2333050000000014  0.7315380000000005
  0.7338499999999968  0.7551139999999990  0.7534190000000009
  0.2289779999999979  0.7527940000000015  0.3048259999999985
  0.0004390000000001  0.9945620000000019  0.0102180000000018
  0.4997889999999998  0.0056009999999986  0.4897700000000000
  0.5118190000000027  0.9983450000000005  0.0013360000000020
  0.9880229999999983  0.0018260000000012  0.4986749999999986
  0.4998890000000031  0.5001359999999977  0.9884010000000032
  0.9998799999999974  0.5005450000000025  0.5116480000000010
  0.0108400000000017  0.5010869999999983  0.9999759999999966
  0.4892290000000017  0.4993970000000019  0.5000089999999986
  0.4796740000000028  0.7471450000000033  0.9428669999999997
  0.9532049999999970  0.7502199999999988  0.4623940000000033
  0.9866940000000000  0.2493709999999965  0.9759060000000019
  0.4363110000000034  0.2520000000000024  0.4664310000000000
  0.0643049999999974  0.7484719999999996  0.0337680000000020
  0.5140049999999974  0.7510880000000029  0.5241400000000027
  0.5456509999999994  0.2501219999999975  0.0367180000000005
  0.0205610000000007  0.2533109999999965  0.5569739999999967
  0.2525699999999986  0.4576210000000032  0.9479169999999968
  0.7447360000000032  0.4719940000000022  0.5259659999999968
  0.4439629999999966  0.5280599999999964  0.2453989999999990
  0.9846020000000024  0.5607699999999980  0.7519199999999984
  0.5389359999999996  0.0318329999999989  0.7502810000000011
  0.0595700000000008  0.0291130000000024  0.2548529999999971
  0.7591600000000014  0.9335299999999975  0.0303940000000011
  0.2428829999999991  0.9716790000000017  0.5434520000000020
  0.2571230000000000  0.0286460000000019  0.9566599999999994
  0.7407320000000013  0.0661429999999967  0.4694829999999968
  0.4399840000000026  0.9714730000000031  0.2452139999999972
  0.9605140000000034  0.9680079999999975  0.7498649999999998
  0.7555290000000028  0.5261509999999987  0.9735609999999966
  0.2475939999999994  0.5429630000000003  0.5524830000000023
  0.5155460000000005  0.4403220000000019  0.7481459999999984
  0.0560509999999965  0.4718769999999992  0.2546159999999986
  0.7498450000000005  0.4973239999999990  0.2497109999999978

  0.00000000E+00  0.00000000E+00  0.00000000E+00
  0.00000000E+00  0.00000000E+00  0.00000000E+00
  0.00000000E+00  0.00000000E+00  0.00000000E+00
  0.00000000E+00  0.00000000E+00  0.00000000E+00
  0.00000000E+00  0.00000000E+00  0.00000000E+00
  0.00000000E+00  0.00000000E+00  0.00000000E+00
  0.00000000E+00  0.00000000E+00  0.00000000E+00
  0.00000000E+00  0.00000000E+00  0.00000000E+00
  0.00000000E+00  0.00000000E+00  0.00000000E+00
  0.00000000E+00  0.00000000E+00  0.00000000E+00
  0.00000000E+00  0.00000000E+00  0.00000000E+00
  0.00000000E+00  0.00000000E+00  0.00000000E+00
  0.00000000E+00  0.00000000E+00  0.00000000E+00
  0.00000000E+00  0.00000000E+00  0.00000000E+00
  0.00000000E+00  0.00000000E+00  0.00000000E+00
  0.00000000E+00  0.00000000E+00  0.00000000E+00
  0.00000000E+00  0.00000000E+00  0.00000000E+00
  0.00000000E+00  0.00000000E+00  0.00000000E+00
  0.00000000E+00  0.00000000E+00  0.00000000E+00
  0.00000000E+00  0.00000000E+00  0.00000000E+00
  0.00000000E+00  0.00000000E+00  0.00000000E+00
  0.00000000E+00  0.00000000E+00  0.00000000E+00
  0.00000000E+00  0.00000000E+00  0.00000000E+00
  0.00000000E+00  0.00000000E+00  0.00000000E+00
  0.00000000E+00  0.00000000E+00  0.00000000E+00
  0.00000000E+00  0.00000000E+00  0.00000000E+00
  0.00000000E+00  0.00000000E+00  0.00000000E+00
  0.00000000E+00  0.00000000E+00  0.00000000E+00
  0.00000000E+00  0.00000000E+00  0.00000000E+00
  0.00000000E+00  0.00000000E+00  0.00000000E+00
  0.00000000E+00  0.00000000E+00  0.00000000E+00
  0.00000000E+00  0.00000000E+00  0.00000000E+00
  0.00000000E+00  0.00000000E+00  0.00000000E+00
  0.00000000E+00  0.00000000E+00  0.00000000E+00
  0.00000000E+00  0.00000000E+00  0.00000000E+00
  0.00000000E+00  0.00000000E+00  0.00000000E+00
  0.00000000E+00  0.00000000E+00  0.00000000E+00
  0.00000000E+00  0.00000000E+00  0.00000000E+00
  0.00000000E+00  0.00000000E+00  0.00000000E+00
