Cs64 Pb64 Br191
1.0
16.840035 0.000000 16.155961
0.000000 23.527616 0.000000
-16.840035 0.000000 16.155961
Cs Pb Br Cs Pb Br
56 56 168 8 8 23
direct
0.886202 0.875130 0.353187 Cs
0.136221 0.875040 0.604558 Cs
0.887530 0.372942 0.351609 Cs
0.136197 0.374548 0.606406 Cs
0.886447 0.875083 0.853719 Cs
0.136068 0.875061 0.103103 Cs
0.385563 0.875729 0.353570 Cs
0.636364 0.875329 0.604059 Cs
0.885622 0.375327 0.853218 Cs
0.136304 0.374996 0.103957 Cs
0.385440 0.875177 0.852351 Cs
0.636406 0.874874 0.105340 Cs
0.387853 0.374912 0.853370 Cs
0.635529 0.374937 0.101672 Cs
0.103809 0.124963 0.385824 Cs
0.353773 0.125317 0.635616 Cs
0.102874 0.625169 0.386254 Cs
0.103542 0.124976 0.886234 Cs
0.352177 0.124945 0.135518 Cs
0.602750 0.123077 0.387262 Cs
0.854213 0.124479 0.637269 Cs
0.103670 0.624984 0.885775 Cs
0.359739 0.625078 0.138050 Cs
0.854060 0.626570 0.637387 Cs
0.603749 0.125013 0.885879 Cs
0.854254 0.124966 0.135630 Cs
0.603540 0.624857 0.886338 Cs
0.851691 0.624724 0.137570 Cs
0.896304 0.874878 0.114158 Cs
0.146330 0.875082 0.364027 Cs
0.896396 0.376443 0.114087 Cs
0.146447 0.374642 0.361669 Cs
0.897837 0.875050 0.614310 Cs
0.146653 0.875067 0.864070 Cs
0.395212 0.875414 0.112740 Cs
0.647792 0.877504 0.362090 Cs
0.892354 0.372904 0.613146 Cs
0.146402 0.374942 0.864240 Cs
0.396311 0.375984 0.115659 Cs
0.396000 0.875045 0.614429 Cs
0.646370 0.875023 0.864375 Cs
0.646248 0.375113 0.864386 Cs
0.113787 0.124879 0.145585 Cs
0.362901 0.124630 0.396475 Cs
0.114294 0.624779 0.145850 Cs
0.113953 0.124845 0.646397 Cs
0.363942 0.124981 0.896764 Cs
0.613603 0.124750 0.145583 Cs
0.864734 0.124679 0.397093 Cs
0.113826 0.625219 0.646458 Cs
0.364710 0.623893 0.897243 Cs
0.614599 0.627629 0.141909 Cs
0.863147 0.626108 0.391392 Cs
0.613713 0.124511 0.645834 Cs
0.864721 0.124846 0.898076 Cs
0.863033 0.625215 0.897223 Cs
0.751659 0.751571 0.249474 Pb
-0.000042 0.749941 0.499918 Pb
0.750127 0.249361 0.249714 Pb
0.000132 0.249788 0.500116 Pb
0.750090 0.750462 0.750169 Pb
0.000016 0.749789 0.999920 Pb
0.249758 0.750233 0.249569 Pb
0.500289 0.750285 0.500201 Pb
0.750853 0.248149 0.751760 Pb
-0.000016 0.250310 0.999947 Pb
0.249985 0.750020 0.750422 Pb
0.499366 0.751159 0.999076 Pb
0.250086 0.249873 0.750377 Pb
0.499912 0.249930 0.000331 Pb
0.001457 0.750052 0.249761 Pb
0.249972 0.750050 0.500148 Pb
0.000012 0.249655 0.249644 Pb
0.000112 0.750027 0.750201 Pb
0.249947 0.749645 0.999957 Pb
0.499362 0.752370 0.249361 Pb
0.749939 0.750422 0.500166 Pb
0.000133 0.249954 0.750217 Pb
0.250112 0.250318 0.999972 Pb
0.750209 0.248165 0.500426 Pb
0.499999 0.750321 0.750150 Pb
0.750300 0.750518 -0.000055 Pb
0.499395 0.248976 0.750481 Pb
0.750137 0.249829 0.000242 Pb
0.000111 1.000005 0.249889 Pb
0.249909 0.999839 0.500127 Pb
0.000293 0.500312 0.249765 Pb
0.000116 -0.000018 0.750157 Pb
0.249961 0.000124 0.999872 Pb
0.499648 0.000599 0.249692 Pb
0.750327 0.999430 0.500212 Pb
0.999862 0.499889 0.750161 Pb
0.250074 0.500009 1.000136 Pb
0.753481 0.500892 0.498989 Pb
0.500012 0.999761 0.750155 Pb
0.749972 1.000062 0.999978 Pb
0.499841 0.500178 0.749978 Pb
0.749911 0.500172 1.000603 Pb
0.750495 0.001322 0.249899 Pb
0.000092 0.999760 0.499976 Pb
0.746991 0.498391 0.251997 Pb
0.000779 0.499080 0.499720 Pb
0.750120 0.999583 0.750198 Pb
0.000021 -0.000195 0.999997 Pb
0.249853 -0.000049 0.249857 Pb
0.499663 0.999224 0.500028 Pb
0.750291 0.500483 0.750128 Pb
-0.000092 0.500124 0.999823 Pb
0.250063 1.000258 0.750105 Pb
0.499954 0.000092 0.999920 Pb
0.250200 0.499806 0.750572 Pb
0.500200 0.500018 0.001878 Pb
0.984596 0.125028 0.230415 Br
0.233915 0.125325 0.481688 Br
0.983864 0.624729 0.230386 Br
0.233879 0.624295 0.480067 Br
0.984824 0.124999 0.731051 Br
0.234295 0.125253 0.980985 Br
0.483106 0.125334 0.228877 Br
0.734543 0.124388 0.480419 Br
0.984710 0.624871 0.730332 Br
0.234107 0.624699 0.979795 Br
0.492985 0.625412 0.236664 Br
0.484208 0.124561 0.730679 Br
0.734174 0.125232 0.980682 Br
0.732964 0.625178 0.982772 Br
0.230046 0.874924 0.234063 Br
0.478936 0.873946 0.484882 Br
0.232755 0.375194 0.233619 Br
0.231574 0.874912 0.734609 Br
0.479287 0.875450 0.982989 Br
0.735053 0.876011 0.233507 Br
0.980679 0.874397 0.483904 Br
0.230884 0.375075 0.735039 Br
0.480992 0.375358 0.985990 Br
0.726316 0.374388 0.235104 Br
0.977982 0.375173 0.484465 Br
0.730296 0.874719 0.734465 Br
0.980457 0.874782 0.984596 Br
0.979773 0.375285 0.983996 Br
0.772044 0.125703 0.266166 Br
0.019513 0.125038 0.515408 Br
0.760066 0.624597 0.266056 Br
0.017822 0.623751 0.516223 Br
0.770728 0.124140 0.767452 Br
0.018380 0.125126 0.015380 Br
0.269172 0.124936 0.265838 Br
0.516687 0.124663 0.516198 Br
0.769081 0.624934 0.765484 Br
0.019912 0.624833 0.015381 Br
0.270309 0.125154 0.765668 Br
0.519373 0.125156 0.015176 Br
0.269094 0.624772 0.767359 Br
0.517248 0.625493 0.014761 Br
0.015969 0.874800 0.269223 Br
0.265690 0.874525 0.519636 Br
0.016164 0.375150 0.267991 Br
0.016067 0.874829 0.769122 Br
0.265168 0.874902 0.018124 Br
0.515228 0.876264 0.270090 Br
0.766972 0.874048 0.520217 Br
0.015829 0.375134 0.769645 Br
0.266138 0.375177 0.020243 Br
0.754974 0.375701 0.519503 Br
0.515980 0.874642 0.769398 Br
0.765545 0.875212 0.019667 Br
0.517931 0.374723 0.764970 Br
0.765969 0.375341 0.018826 Br
0.874133 0.982520 0.224315 Br
0.123870 0.982001 0.474587 Br
0.869675 0.483496 0.226928 Br
0.123132 0.481447 0.475372 Br
0.873940 0.981874 0.724467 Br
0.123878 0.982158 0.974471 Br
0.373949 0.981900 0.224435 Br
0.623848 0.981922 0.474754 Br
0.873712 0.482880 0.722535 Br
0.123946 0.481924 0.975016 Br
0.375613 0.483835 0.226689 Br
0.374013 0.982137 0.724453 Br
0.623863 0.981999 0.974730 Br
0.623962 0.482341 0.974787 Br
0.974656 0.017766 0.373954 Br
0.224561 0.017885 0.623878 Br
0.974976 0.518020 0.374263 Br
0.224695 0.518317 0.623566 Br
0.974571 0.017744 0.873852 Br
0.224458 0.017846 0.123949 Br
0.474289 0.018058 0.373973 Br
0.724670 0.018029 0.623889 Br
0.974015 0.518285 0.873572 Br
0.226214 0.518164 0.124195 Br
0.474564 0.018047 0.873778 Br
0.724587 0.018221 0.124055 Br
0.476089 0.516151 0.873895 Br
0.723348 0.516860 0.125329 Br
0.026099 0.767650 0.126145 Br
0.275363 0.768344 0.376188 Br
0.025546 0.268031 0.126122 Br
0.025364 0.767809 0.625970 Br
0.275740 0.767730 0.875992 Br
0.523800 0.768367 0.125420 Br
0.774831 0.768064 0.376096 Br
0.025195 0.268003 0.625948 Br
0.276065 0.268535 0.876122 Br
0.525640 0.268160 0.126405 Br
0.775811 0.267236 0.376620 Br
0.525899 0.767642 0.625920 Br
0.775760 0.767867 0.875830 Br
0.776027 0.267685 0.876672 Br
0.125920 0.232227 0.275220 Br
0.374970 0.233869 0.524878 Br
0.126837 0.730795 0.276104 Br
0.126362 0.232042 0.775475 Br
0.376179 0.232251 0.025757 Br
0.626235 0.229126 0.275975 Br
0.875980 0.232050 0.526378 Br
0.126140 0.732120 0.775365 Br
0.375928 0.731899 0.025582 Br
0.875732 0.730862 0.524221 Br
0.626264 0.232498 0.774610 Br
0.876058 0.232589 0.025932 Br
0.626140 0.732020 0.775818 Br
0.875966 0.731273 0.026006 Br
0.875500 0.766385 0.224408 Br
0.124124 0.767635 0.474710 Br
0.873597 0.268895 0.224056 Br
0.123253 0.269971 0.474288 Br
0.873857 0.767961 0.724394 Br
0.123758 0.767865 0.974419 Br
0.373920 0.768099 0.224098 Br
0.623936 0.772076 0.474023 Br
0.874118 0.267399 0.724713 Br
0.123920 0.268056 0.974662 Br
0.374108 0.267658 0.225156 Br
0.373998 0.767598 0.724151 Br
0.623750 0.767922 0.975233 Br
0.623910 0.267946 0.974444 Br
0.974637 0.232073 0.373916 Br
0.224131 0.232303 0.624018 Br
0.974895 0.731969 0.373899 Br
0.224537 0.731875 0.623830 Br
0.974535 0.232147 0.873868 Br
0.224447 0.232017 0.123926 Br
0.474672 0.230625 0.373954 Br
0.725629 0.231343 0.624823 Br
0.974274 0.731753 0.873860 Br
0.224704 0.732055 0.123971 Br
0.474199 0.232627 0.874132 Br
0.724440 0.231893 0.124256 Br
0.474052 0.731926 0.873447 Br
0.725981 0.733502 0.123874 Br
0.126202 0.017986 0.275490 Br
0.376020 0.017688 0.525529 Br
0.125070 0.517809 0.274749 Br
0.126187 0.018006 0.775443 Br
0.376084 0.018009 0.025525 Br
0.626258 0.018254 0.275090 Br
0.876054 0.018024 0.525695 Br
0.126217 0.517735 0.774933 Br
0.376375 0.517799 0.026435 Br
0.870472 0.516670 0.525716 Br
0.626179 0.018002 0.775341 Br
0.876038 0.017776 0.025471 Br
0.626219 0.517611 0.775183 Br
0.875974 0.518803 0.026037 Br
0.025564 0.982063 0.126122 Br
0.275232 0.982254 0.376204 Br
0.025328 0.482120 0.126142 Br
0.025550 0.982064 0.625995 Br
0.275632 0.982463 0.876058 Br
0.525392 0.981817 0.126094 Br
0.775810 0.982287 0.376228 Br
0.023838 0.481236 0.625217 Br
0.276214 0.481294 0.875935 Br
0.527182 0.484376 0.128611 Br
0.779173 0.480093 0.376752 Br
0.525473 0.981954 0.625931 Br
0.775510 0.981810 0.876130 Br
0.775003 0.483565 0.875742 Br
0.385625 0.372708 0.355545 Cs
0.634939 0.368001 0.617907 Cs
0.606477 0.639800 0.377941 Cs
0.352415 0.626333 0.638927 Cs
0.398760 0.373555 0.613295 Cs
0.644859 0.364379 0.364546 Cs
0.614465 0.626095 0.649491 Cs
0.362124 0.628699 0.394313 Cs
0.249959 0.249613 0.249731 Pb
0.499015 0.248655 0.499680 Pb
0.499869 0.249024 0.249636 Pb
0.248564 0.250194 0.500189 Pb
0.503459 0.499337 0.255309 Pb
0.247617 0.499644 0.499746 Pb
0.251781 0.500019 0.249652 Pb
0.493930 0.503211 0.500420 Pb
0.483877 0.624700 0.730927 Br
0.732508 0.623746 0.476878 Br
0.735573 0.374484 0.738575 Br
0.490261 0.376909 0.483775 Br
0.270493 0.625123 0.264400 Br
0.529640 0.623980 0.511277 Br
0.514943 0.374257 0.271864 Br
0.266346 0.375899 0.520803 Br
0.374267 0.481341 0.723200 Br
0.467631 0.516422 0.375731 Br
0.721641 0.516151 0.621440 Br
0.522660 0.264316 0.625979 Br
0.274080 0.267414 0.376235 Br
0.626703 0.742208 0.268914 Br
0.376727 0.729365 0.525462 Br
0.374121 0.268681 0.724224 Br
0.623540 0.262840 0.478340 Br
0.474334 0.734401 0.373872 Br
0.724643 0.731708 0.623601 Br
0.378726 0.519473 0.526145 Br
0.527921 0.483394 0.624092 Br
0.274191 0.480945 0.376722 Br
0.623817 0.510386 0.300662 Br
