Geometry = GenFormat {
40  S
Cs   Pb   Br
1      1      2.933840000000000      2.933840000000000      2.933840000000000
2      1      2.933840000000000      2.933840000000000      8.801510000000000
3      1      2.933840000000000      8.801510000000000      2.933840000000000
4      1      2.933840000000000      8.801510000000000      8.801510000000000
5      1      8.801510000000000      2.933840000000000      2.933840000000000
6      1      8.801510000000000      2.933840000000000      8.801510000000000
7      1      8.801510000000000      8.801510000000000      2.933840000000000
8      1      8.801510000000000      8.801510000000000      8.801510000000000
9      2      0.000000000000000      0.000000000000000      0.000000000000000
10     2      0.000000000000000      0.000000000000000      5.867680000000000
11     2      0.000000000000000      5.867680000000000      0.000000000000000
12     2      0.000000000000000      5.867680000000000      5.867680000000000
13     2      5.867680000000000      0.000000000000000      0.000000000000000
14     2      5.867680000000000      0.000000000000000      5.867680000000000
15     2      5.867680000000000      5.867680000000000      0.000000000000000
16     2      5.867680000000000      5.867680000000000      5.867680000000000
17     3     11.207260000000000      2.933840000000000      0.586770000000000
18     3     11.207260000000000      2.933840000000000      5.280910000000000
19     3      0.528090000000000      8.801510000000000     11.148580000000001
20     3      0.528090000000000      8.801510000000000      6.454440000000000
21     3      6.395770000000000      2.933840000000000     11.148580000000001
22     3      6.395770000000000      2.933840000000000      6.454440000000000
23     3      5.339590000000000      8.801510000000000      0.586770000000000
24     3      5.339590000000000      8.801510000000000      5.280910000000000
25     3      0.586770000000000     11.148580000000001      2.933840000000000
26     3     11.148580000000001      0.586770000000000      8.801510000000000
27     3     11.148580000000001      6.454440000000000      2.933840000000000
28     3      0.586770000000000      5.280910000000000      8.801510000000000
29     3      5.280910000000000      0.586770000000000      2.933840000000000
30     3      6.454440000000000     11.148580000000001      8.801510000000000
31     3      6.454440000000000      5.280910000000000      2.933840000000000
32     3      5.280910000000000      6.454440000000000      8.801510000000000
33     3      2.933840000000000      0.528090000000000     11.148580000000001
34     3      2.933840000000000      0.528090000000000      6.454440000000000
35     3      2.933840000000000      5.339590000000000      0.586770000000000
36     3      2.933840000000000      5.339590000000000      5.280910000000000
37     3      8.801510000000000     11.207260000000000      0.586770000000000
38     3      8.801510000000000     11.207260000000000      5.280910000000000
39     3      8.801510000000000      6.395770000000000     11.148580000000001
40     3      8.801510000000000      6.395770000000000      6.454440000000000
0.000000000000000      0.000000000000000      0.000000000000000
11.735352000000001      0.000000000000000      0.000000000000000
0.000000000000000     11.735352000000001      0.000000000000000
0.000000000000000      0.000000000000000     11.735352000000001
}
Driver = ConjugateGradient {
  MaxForceComponent = 1.00E-008
  MaxSteps = 1000
  LatticeOpt = No
  MovedAtoms = "1:-1"
  MaxAtomStep = 0.20000000000000001
  StepSize = 100.00000000000000
  OutputPrefix = "geo_end"
  AppendGeometries = No
  Constraints = {}
}
Hamiltonian = DFTB {
  KPointsAndWeights = SupercellFolding {
2 0 0 0 2 0 0 0 2     0.0 0.0 0.0
  }
  MaxAngularMomentum = {
    Br = "p"
    Cs = "s"
    Pb = "p"
  }
  SCC = Yes
  SCCTolerance = 1.00E-010
  SlaterKosterFiles = Type2FileNames {
    Prefix = /home/thism292/Documents/repos/CsPbBr3_CCS/Data/DFTB_CCS/DFTB_PARAMS/Cs_w3_00_c9_00_Pb_w3_00_c9_00_Br_w3_00_c9_00/
    Separator = "-"
    Suffix = ".skf"
    LowerCaseTypeName = No
  }
  PolynomialRepulsive = {}
  ShellResolvedSCC = No
  OldSKInterpolation = No
  RangeSeparated = None {}
  ReadInitialCharges = No
  InitialCharges = {}
  EwaldParameter = 0.0000000000000000
  EwaldTolerance = 1.0000000000000001E-009
  ConvergentSCCOnly = Yes
  HCorrection = None {}
  SpinPolarisation = {}
  ElectricField = {}
  Solver = RelativelyRobust {}
  Charge = 0.0000000000000000
  MaxSCCIterations = 100
  OnSiteCorrection = {}
  Dispersion = {}
  Solvation = {}
  Electrostatics = GammaFunctional {}
  ThirdOrder = No
  ThirdOrderFull = No
  Differentiation = FiniteDiff {
    Delta = 1.2207031250000000E-004
  }
  ForceEvaluation = "Traditional"
  Mixer = Broyden {
    MixingParameter = 0.20000000000000001
    InverseJacobiWeight = 1.0000000000000000E-002
    MinimalWeight = 1.0000000000000000
    MaximalWeight = 100000.00000000000
    WeightFactor = 1.0000000000000000E-002
  }
  Filling = Fermi {
    Temperature = 0.0000000000000000
    IndependentKFilling = No
  }
}
Options = {
  WriteResultsTag = Yes
  WriteDetailedOut = Yes
  WriteAutotestTag = No
  WriteDetailedXML = No
  RandomSeed = 0
  WriteHS = No
  WriteRealHS = No
  MinimiseMemoryUsage = No
  ShowFoldedCoords = No
  TimingVerbosity = 1
  WriteChargesAsText = No
}
ParserOptions = {
  IgnoreUnprocessedNodes = Yes
  ParserVersion = 12
  WriteHSDInput = Yes
  StopAfterParsing = No
}
Analysis = {
  CalculateForces = Yes
  ProjectStates = {}
  WriteEigenvectors = No
  WriteBandOut = Yes
  MullikenAnalysis = Yes
  WriteNetCharges = No
  AtomResolvedEnergies = No
}
Reks = None {}
ExcitedState = {}
