Cs7 Pb8 Br24
1.0
8.420018 0.000000 8.077981
0.000000 11.763808 0.000000
-8.420018 0.000000 8.077981
Cs Pb Br Cs
6 8 24 1
direct
0.270914 0.250000 0.203596 Cs
0.773739 0.250001 0.716369 Cs
0.206067 0.750000 0.762798 Cs
0.295794 0.250000 0.728912 Cs
0.789285 0.250000 0.222843 Cs
0.233447 0.750000 0.296448 Cs
-0.000863 -0.002966 0.000369 Pb
0.504580 -0.000371 0.495340 Pb
0.501913 -0.002912 -0.000954 Pb
-0.000282 0.000566 0.500314 Pb
0.501913 0.502911 -0.000948 Pb
-0.000285 0.499432 0.500318 Pb
-0.000859 0.502959 0.000371 Pb
0.504579 0.500377 0.495337 Pb
0.459444 0.750002 0.958368 Br
0.980200 0.749998 0.470533 Br
0.969422 0.249999 0.971296 Br
0.456807 0.250000 0.466887 Br
0.051947 0.750000 0.030800 Br
0.524482 0.750001 0.531409 Br
0.529574 0.250000 0.031619 Br
0.034756 0.249998 0.546504 Br
0.248778 0.464276 0.947710 Br
0.750496 0.447817 0.457100 Br
0.439370 0.523559 0.245873 Br
0.948557 0.536027 0.749179 Br
0.546966 0.039977 0.749993 Br
0.050511 0.037874 0.252739 Br
0.753195 0.968678 0.051854 Br
0.253452 0.970117 0.549471 Br
0.248779 0.035726 0.947710 Br
0.750497 0.052183 0.457100 Br
0.439370 0.976442 0.245873 Br
0.948559 0.963972 0.749178 Br
0.753195 0.531324 0.051854 Br
0.253453 0.529884 0.549471 Br
0.546965 0.460025 0.749994 Br
0.050507 0.462123 0.252740 Br
0.717634 0.750001 0.661598 Cs
