Cs64 Pb64 Br191
1.0
16.840035 0.000000 16.155961
0.000000 23.527616 0.000000
-16.840035 0.000000 16.155961
Cs Pb Br Cs Pb Br
56 56 168 8 8 23
Selective dynamics
direct
0.886084 0.875139 0.353743 F F F
0.136062 0.875102 0.604032 F F F
0.886481 0.374757 0.357269 F F F
0.136034 0.374847 0.603809 F F F
0.886021 0.875159 0.853425 F F F
0.135992 0.875119 0.103816 F F F
0.385701 0.875119 0.353391 F F F
0.636127 0.875191 0.604021 F F F
0.886052 0.374835 0.853348 F F F
0.136135 0.374589 0.103179 F F F
0.385659 0.875200 0.853100 F F F
0.636199 0.875715 0.103666 F F F
0.385901 0.374792 0.853267 F F F
0.635431 0.372629 0.099579 F F F
0.103562 0.124860 0.386035 F F F
0.353614 0.124838 0.636151 F F F
0.103629 0.625823 0.387929 F F F
0.103573 0.124856 0.885851 F F F
0.353564 0.124915 0.135985 F F F
0.603291 0.123869 0.386770 F F F
0.853923 0.124682 0.636444 F F F
0.103830 0.625145 0.885939 F F F
0.354514 0.626577 0.135600 F F F
0.854039 0.624957 0.636147 F F F
0.603751 0.124861 0.885767 F F F
0.853763 0.124925 0.135795 F F F
0.603707 0.625129 0.885568 F F F
0.853196 0.627648 0.135894 F F F
0.896384 0.875068 0.114070 F F F
0.146361 0.875097 0.364014 F F F
0.897980 0.374022 0.111661 F F F
0.146727 0.374023 0.364508 F F F
0.896575 0.875114 0.614249 F F F
0.146309 0.875078 0.863843 F F F
0.396122 0.875352 0.113933 F F F
0.646252 0.875284 0.364187 F F F
0.895451 0.374842 0.613845 F F F
0.146264 0.374983 0.864066 F F F
0.395858 0.372078 0.110865 F F F
0.396047 0.875193 0.614214 F F F
0.646239 0.874996 0.864053 F F F
0.646012 0.374894 0.863494 F F F
0.113978 0.124937 0.146373 F F F
0.363919 0.124724 0.396443 F F F
0.113760 0.625695 0.143373 F F F
0.114025 0.124900 0.646574 F F F
0.363656 0.124818 0.896044 F F F
0.614085 0.124810 0.146695 F F F
0.864303 0.124639 0.396157 F F F
0.114005 0.625126 0.646552 F F F
0.364204 0.625077 0.896668 F F F
0.614017 0.632391 0.132649 F F F
0.863762 0.625322 0.395797 F F F
0.613993 0.124989 0.646357 F F F
0.864075 0.124838 0.896263 F F F
0.863484 0.625242 0.896815 F F F
0.750176 0.750598 0.250411 F F F
0.000009 0.750353 0.500180 F F F
0.749888 0.249874 0.249781 F F F
0.000297 0.249546 0.500269 F F F
0.750026 0.750247 0.749857 F F F
-0.000003 0.750499 0.999719 F F F
0.249957 0.749901 0.250108 F F F
0.499698 0.750623 0.500399 F F F
0.750128 0.249889 0.750190 F F F
0.000106 0.249604 0.999757 F F F
0.249966 0.749973 0.750023 F F F
0.499247 0.751449 0.999129 F F F
0.249940 0.249996 0.750024 F F F
0.500025 0.249174 0.999702 F F F
0.000344 0.749935 0.250105 F F F
0.249880 0.750305 0.500191 F F F
0.999848 0.250039 0.250044 F F F
0.000004 0.750082 0.750047 F F F
0.249910 0.750426 0.999840 F F F
0.500018 0.750490 0.249882 F F F
0.750317 0.750255 0.500396 F F F
0.000081 0.249998 0.750026 F F F
0.249744 0.249527 0.999732 F F F
0.750735 0.248409 0.500651 F F F
0.499881 0.750433 0.749973 F F F
0.750380 0.751004 0.999434 F F F
0.499958 0.249866 0.749997 F F F
0.750149 0.249726 0.999772 F F F
0.000024 0.999982 0.250000 F F F
0.249940 0.999918 0.500064 F F F
0.003325 0.500175 0.250247 F F F
0.000030 0.000013 0.750036 F F F
0.249930 0.999930 0.999930 F F F
0.499908 0.000351 0.249972 F F F
0.750172 0.999587 0.500182 F F F
0.000060 0.499984 0.749998 F F F
0.250063 0.499962 0.999812 F F F
0.749736 0.500397 0.500089 F F F
0.499978 0.000179 0.750008 F F F
0.750027 0.000289 0.999865 F F F
0.499831 0.500110 0.750061 F F F
0.750209 0.499789 0.999650 F F F
0.750060 0.000175 0.250030 F F F
0.000062 0.999836 0.500102 F F F
0.755155 0.497409 0.246628 F F F
0.000231 0.500174 0.500315 F F F
0.750007 0.000136 0.750024 F F F
0.000006 0.000035 0.999930 F F F
0.249956 0.000075 0.250009 F F F
0.499843 0.999568 0.500143 F F F
0.750046 0.500115 0.749987 F F F
0.999818 0.500097 0.999434 F F F
0.249949 0.000051 0.749994 F F F
0.499933 0.000401 0.999895 F F F
0.249969 0.500089 0.750042 F F F
0.499763 0.499240 0.999696 F F F
0.983919 0.125506 0.230827 F F F
0.234131 0.124837 0.480384 F F F
0.984488 0.624161 0.229632 F F F
0.233951 0.624758 0.481625 F F F
0.984415 0.125086 0.730959 F F F
0.234054 0.124918 0.980547 F F F
0.484157 0.126101 0.231143 F F F
0.734736 0.124249 0.480174 F F F
0.984353 0.624932 0.730834 F F F
0.234533 0.624924 0.981368 F F F
0.491183 0.623487 0.227722 F F F
0.484295 0.125223 0.730582 F F F
0.734253 0.125446 0.980616 F F F
0.732912 0.625280 0.983356 F F F
0.231171 0.874602 0.234529 F F F
0.479726 0.874568 0.483862 F F F
0.230665 0.375932 0.234126 F F F
0.231033 0.874934 0.734436 F F F
0.479810 0.875583 0.983662 F F F
0.730622 0.874777 0.234887 F F F
0.980289 0.874900 0.484160 F F F
0.230682 0.375148 0.734486 F F F
0.481832 0.374707 0.983426 F F F
0.722143 0.376066 0.235190 F F F
0.981456 0.375051 0.485459 F F F
0.730679 0.875089 0.734471 F F F
0.980223 0.875117 0.984199 F F F
0.981615 0.375088 0.983159 F F F
0.769370 0.125878 0.265195 F F F
0.019532 0.124880 0.515854 F F F
0.764508 0.622983 0.265322 F F F
0.018755 0.625014 0.516442 F F F
0.769347 0.125186 0.765964 F F F
0.019516 0.125095 0.015894 F F F
0.269459 0.125410 0.265609 F F F
0.518298 0.124360 0.516375 F F F
0.769252 0.625018 0.765681 F F F
0.018376 0.625015 0.014958 F F F
0.269090 0.125084 0.765628 F F F
0.520215 0.125102 0.016153 F F F
0.269575 0.624924 0.766012 F F F
0.514452 0.625130 0.011642 F F F
0.015590 0.874714 0.269190 F F F
0.265612 0.874828 0.519499 F F F
0.015337 0.375786 0.270759 F F F
0.015678 0.874967 0.769275 F F F
0.265645 0.875018 0.019667 F F F
0.515769 0.874746 0.269068 F F F
0.765969 0.874464 0.519781 F F F
0.015764 0.375131 0.769483 F F F
0.265112 0.374897 0.018721 F F F
0.763902 0.374664 0.516761 F F F
0.515748 0.875204 0.769427 F F F
0.765877 0.875471 0.019181 F F F
0.515643 0.375271 0.768777 F F F
0.766645 0.375394 0.019479 F F F
0.873884 0.982089 0.224568 F F F
0.123932 0.981933 0.474515 F F F
0.871127 0.481299 0.224358 F F F
0.124009 0.482110 0.474174 F F F
0.873936 0.982105 0.724563 F F F
0.123958 0.981938 0.974583 F F F
0.374068 0.982188 0.224543 F F F
0.623938 0.981884 0.474661 F F F
0.873869 0.482048 0.724427 F F F
0.123854 0.482330 0.974866 F F F
0.378014 0.480501 0.223682 F F F
0.374010 0.982186 0.724576 F F F
0.623960 0.981957 0.974583 F F F
0.623959 0.482346 0.974305 F F F
0.974607 0.017827 0.373904 F F F
0.224512 0.017936 0.623943 F F F
0.974751 0.518135 0.373433 F F F
0.224498 0.517821 0.623873 F F F
0.974523 0.017934 0.874046 F F F
0.224533 0.017965 0.124095 F F F
0.474489 0.017810 0.373883 F F F
0.724521 0.018009 0.623929 F F F
0.974212 0.518100 0.874264 F F F
0.225358 0.518186 0.124971 F F F
0.474533 0.018151 0.874037 F F F
0.724519 0.017881 0.124124 F F F
0.474467 0.517337 0.874437 F F F
0.720967 0.518077 0.124240 F F F
0.025430 0.767856 0.126084 F F F
0.275542 0.767824 0.376017 F F F
0.025372 0.268172 0.126160 F F F
0.025465 0.768005 0.625945 F F F
0.275504 0.767930 0.876118 F F F
0.525353 0.768433 0.125797 F F F
0.775503 0.767855 0.376002 F F F
0.025436 0.267941 0.626032 F F F
0.275478 0.267909 0.876078 F F F
0.525110 0.268127 0.126370 F F F
0.776295 0.266871 0.376016 F F F
0.525533 0.768130 0.625803 F F F
0.775595 0.767934 0.875847 F F F
0.775498 0.268070 0.876180 F F F
0.125873 0.232280 0.275442 F F F
0.375723 0.232084 0.525574 F F F
0.126199 0.731229 0.275498 F F F
0.126007 0.232105 0.775568 F F F
0.376110 0.231874 0.025429 F F F
0.626142 0.230799 0.276549 F F F
0.876154 0.231899 0.525877 F F F
0.126014 0.732057 0.775471 F F F
0.375889 0.732657 0.025488 F F F
0.875899 0.731829 0.525382 F F F
0.626031 0.232125 0.775444 F F F
0.876000 0.232077 0.025588 F F F
0.626002 0.732154 0.775523 F F F
0.875895 0.732278 0.025210 F F F
0.874089 0.767508 0.224769 F F F
0.123930 0.767955 0.474447 F F F
0.873481 0.271248 0.225278 F F F
0.123880 0.267805 0.474578 F F F
0.873914 0.767888 0.724414 F F F
0.123874 0.767967 0.974545 F F F
0.374198 0.767500 0.224242 F F F
0.623889 0.767919 0.474318 F F F
0.873950 0.267996 0.724555 F F F
0.123985 0.267849 0.974524 F F F
0.374359 0.270109 0.225914 F F F
0.374008 0.767948 0.724427 F F F
0.623798 0.767478 0.975429 F F F
0.624011 0.267673 0.974040 F F F
0.974412 0.232201 0.373965 F F F
0.224438 0.232039 0.623926 F F F
0.974552 0.731766 0.373901 F F F
0.224495 0.732048 0.623969 F F F
0.974456 0.231954 0.874101 F F F
0.224700 0.232114 0.124093 F F F
0.474670 0.231951 0.374095 F F F
0.724852 0.231966 0.624075 F F F
0.974342 0.732017 0.874013 F F F
0.224763 0.732004 0.124142 F F F
0.474419 0.231877 0.874232 F F F
0.724429 0.232081 0.124114 F F F
0.474279 0.732554 0.873814 F F F
0.727009 0.735149 0.124019 F F F
0.126004 0.017921 0.275450 F F F
0.375982 0.017864 0.525495 F F F
0.126723 0.518438 0.275493 F F F
0.126008 0.017864 0.775481 F F F
0.376056 0.018133 0.025520 F F F
0.626023 0.017857 0.275477 F F F
0.875968 0.017947 0.525495 F F F
0.126005 0.517974 0.775492 F F F
0.376234 0.516417 0.027154 F F F
0.875630 0.517786 0.524393 F F F
0.626026 0.017941 0.775434 F F F
0.875974 0.018019 0.025521 F F F
0.626004 0.517901 0.775442 F F F
0.875726 0.518341 0.027110 F F F
0.025415 0.982051 0.126104 F F F
0.275454 0.982059 0.375954 F F F
0.025584 0.481667 0.126486 F F F
0.025446 0.982020 0.625989 F F F
0.275410 0.982079 0.876096 F F F
0.525366 0.982140 0.126124 F F F
0.775450 0.982011 0.375937 F F F
0.025309 0.482056 0.625931 F F F
0.275624 0.482181 0.876360 F F F
0.528384 0.482158 0.127652 F F F
0.771051 0.481500 0.373575 F F F
0.525423 0.981916 0.625964 F F F
0.775417 0.982071 0.876090 F F F
0.775521 0.482327 0.876251 F F F
0.386856 0.373000 0.357181 F F F
0.635868 0.374607 0.603983 F F F
0.603002 0.629837 0.389353 F F F
0.353609 0.625042 0.636232 F F F
0.396428 0.374762 0.613956 F F F
0.649481 0.366995 0.371400 F F F
0.613902 0.625257 0.647420 F F F
0.363661 0.625675 0.399105 F F F
0.249987 0.250000 0.250013 F F F
0.499537 0.248910 0.500552 F F F
0.500334 0.250327 0.250332 F F F
0.249796 0.249523 0.500171 F F F
0.494863 0.498522 0.249234 F F F
0.249847 0.499790 0.500289 F F F
0.249109 0.500451 0.250500 F F F
0.500201 0.500354 0.500585 F F F
0.483960 0.625141 0.731377 F F F
0.734303 0.624809 0.479653 F F F
0.730889 0.375231 0.734191 F F F
0.483962 0.374975 0.485160 F F F
0.271745 0.624231 0.266331 F F F
0.518979 0.625065 0.517050 F F F
0.519747 0.376722 0.274605 F F F
0.265885 0.374842 0.518897 F F F
0.374050 0.481978 0.724432 F F F
0.475818 0.521055 0.372997 F F F
0.724181 0.517759 0.623348 F F F
0.525325 0.267812 0.626141 F F F
0.275241 0.267811 0.375965 F F F
0.626125 0.730982 0.273945 F F F
0.376045 0.732048 0.525687 F F F
0.374005 0.267971 0.724588 F F F
0.623980 0.263204 0.477869 F F F
0.474757 0.731453 0.373663 F F F
0.724393 0.731862 0.623829 F F F
0.376258 0.517762 0.525322 F F F
0.525737 0.482246 0.625571 F F F
0.275865 0.481713 0.375666 F F F
0.623789 0.484539 0.470406 T T T