Cs64 Pb64 Br191
1.0
16.840035 0.000000 16.155961
0.000000 23.527616 0.000000
-16.840035 0.000000 16.155961
Cs Pb Br Cs Pb Br
56 56 168 8 8 23
direct
0.885988 0.875179 0.353419 Cs
0.136058 0.875069 0.603572 Cs
0.886485 0.374353 0.351619 Cs
0.136194 0.374283 0.605928 Cs
0.886383 0.875174 0.853862 Cs
0.135992 0.875077 0.103341 Cs
0.385771 0.875289 0.353736 Cs
0.635930 0.875192 0.603320 Cs
0.885784 0.374914 0.853217 Cs
0.136180 0.374830 0.103523 Cs
0.385989 0.875157 0.853718 Cs
0.636025 0.874962 0.103706 Cs
0.386476 0.374704 0.853565 Cs
0.635777 0.375074 0.102932 Cs
0.103668 0.124866 0.386003 Cs
0.353604 0.124805 0.635991 Cs
0.101996 0.625918 0.385386 Cs
0.103618 0.124912 0.886144 Cs
0.353429 0.124865 0.135775 Cs
0.603490 0.124757 0.385800 Cs
0.853920 0.124627 0.636127 Cs
0.103773 0.625045 0.885958 Cs
0.355426 0.625034 0.136564 Cs
0.853837 0.627521 0.638540 Cs
0.603686 0.125005 0.885950 Cs
0.853804 0.124867 0.135891 Cs
0.603941 0.625238 0.886610 Cs
0.853953 0.625274 0.136013 Cs
0.896486 0.875215 0.113830 Cs
0.146469 0.875103 0.363884 Cs
0.896440 0.374699 0.113230 Cs
0.146767 0.374047 0.362769 Cs
0.896643 0.875120 0.614064 Cs
0.146443 0.875144 0.864115 Cs
0.396176 0.875290 0.113626 Cs
0.646738 0.876166 0.363003 Cs
0.895983 0.373378 0.614550 Cs
0.146254 0.374853 0.863930 Cs
0.395695 0.375748 0.114713 Cs
0.396381 0.875038 0.614174 Cs
0.646340 0.875134 0.864216 Cs
0.646494 0.374900 0.864577 Cs
0.113849 0.124847 0.146093 Cs
0.363857 0.124706 0.396432 Cs
0.114153 0.624933 0.146250 Cs
0.114064 0.124848 0.646259 Cs
0.363961 0.124860 0.896568 Cs
0.613932 0.124839 0.146101 Cs
0.864227 0.124874 0.396498 Cs
0.113707 0.625358 0.646754 Cs
0.363907 0.625170 0.896796 Cs
0.613830 0.625777 0.145792 Cs
0.863703 0.626570 0.393877 Cs
0.613679 0.124229 0.646300 Cs
0.864324 0.124807 0.897028 Cs
0.864051 0.625217 0.896618 Cs
0.750773 0.750969 0.249311 Pb
0.000024 0.750140 0.500039 Pb
0.750213 0.249715 0.249657 Pb
0.000038 0.249727 0.499927 Pb
0.750013 0.750759 0.750258 Pb
0.000073 0.750013 0.999973 Pb
0.249689 0.750324 0.249707 Pb
0.500181 0.749806 0.500247 Pb
0.750779 0.248366 0.750900 Pb
0.000055 0.250018 0.999960 Pb
0.249830 0.750427 0.750275 Pb
0.499848 0.750320 0.999806 Pb
0.249911 0.249493 0.750336 Pb
0.499958 0.249900 0.000204 Pb
0.000250 0.750344 0.249820 Pb
0.250028 0.749838 0.499910 Pb
0.000077 0.249684 0.249810 Pb
0.000199 0.750395 0.750236 Pb
0.249945 0.750057 1.000025 Pb
0.499283 0.751146 0.249476 Pb
0.749931 0.750243 0.499939 Pb
0.000077 0.249599 0.750164 Pb
0.250024 0.249940 0.999951 Pb
0.749910 0.249509 0.499982 Pb
0.499924 0.750165 0.750242 Pb
0.750109 0.750309 0.000003 Pb
0.499713 0.249011 0.750609 Pb
0.750063 0.249689 0.000063 Pb
0.000054 0.999994 0.249941 Pb
0.250003 0.999769 0.500023 Pb
0.000588 0.499848 0.249771 Pb
0.000069 0.000050 0.750072 Pb
0.249978 0.000028 0.999966 Pb
0.499850 0.000107 0.249821 Pb
0.750063 0.999885 0.500004 Pb
0.999926 0.500088 0.750183 Pb
0.249944 0.500067 1.000011 Pb
0.754786 0.500695 0.500770 Pb
0.499994 0.999660 0.750139 Pb
0.750016 0.999988 1.000002 Pb
0.499978 0.500036 0.750769 Pb
0.750203 0.500130 0.999928 Pb
0.750161 0.000456 0.249881 Pb
0.000034 0.999811 0.499966 Pb
0.751223 0.499866 0.248767 Pb
0.000766 0.499314 0.499537 Pb
0.750069 0.999572 0.750101 Pb
0.000046 -0.000017 1.000006 Pb
0.249922 0.000021 0.249873 Pb
0.499938 0.999717 0.499942 Pb
0.750247 0.500630 0.750325 Pb
0.000053 0.499934 0.999947 Pb
0.249981 0.999935 0.750070 Pb
0.500015 0.000082 0.999985 Pb
0.250107 0.499961 0.750551 Pb
0.500011 0.500049 0.000273 Pb
0.984331 0.125035 0.230512 Br
0.234376 0.125064 0.481094 Br
0.984501 0.624898 0.231348 Br
0.233682 0.624387 0.478203 Br
0.984494 0.124993 0.730275 Br
0.234336 0.125072 0.980525 Br
0.484113 0.125008 0.230179 Br
0.733976 0.125407 0.480401 Br
0.984710 0.625110 0.730975 Br
0.234216 0.624939 0.980605 Br
0.485727 0.624659 0.235032 Br
0.484232 0.124469 0.730810 Br
0.734179 0.125013 0.980483 Br
0.734441 0.625026 0.981043 Br
0.230405 0.874951 0.234123 Br
0.480477 0.873903 0.484731 Br
0.231560 0.374871 0.233943 Br
0.230377 0.874914 0.734109 Br
0.480603 0.875045 0.984144 Br
0.731933 0.875671 0.233665 Br
0.980410 0.874522 0.484214 Br
0.231729 0.375024 0.734626 Br
0.480430 0.375264 0.985026 Br
0.730413 0.375331 0.233270 Br
0.978659 0.375377 0.483955 Br
0.729765 0.874859 0.733873 Br
0.980868 0.874931 0.984398 Br
0.980465 0.375094 0.983823 Br
0.770017 0.125620 0.266039 Br
0.019026 0.125103 0.515530 Br
0.767800 0.625260 0.265451 Br
0.018419 0.623987 0.515964 Br
0.770437 0.124293 0.766433 Br
0.019127 0.125084 0.015536 Br
0.269791 0.124895 0.265759 Br
0.519173 0.125169 0.515076 Br
0.768316 0.625204 0.766190 Br
0.019501 0.624858 0.015535 Br
0.269701 0.124889 0.765740 Br
0.519513 0.125140 0.015568 Br
0.268019 0.624977 0.767171 Br
0.518993 0.624988 0.015706 Br
0.015808 0.875017 0.269660 Br
0.266136 0.874312 0.519303 Br
0.016401 0.374957 0.269135 Br
0.015907 0.875061 0.769425 Br
0.265660 0.874979 0.019207 Br
0.515181 0.875260 0.269813 Br
0.765997 0.874387 0.519219 Br
0.015402 0.375107 0.768682 Br
0.265724 0.375111 0.019236 Br
0.760055 0.376154 0.522823 Br
0.515775 0.874434 0.769458 Br
0.765703 0.875034 0.019605 Br
0.516828 0.374621 0.767517 Br
0.765537 0.375100 0.018797 Br
0.873951 0.982173 0.224540 Br
0.123925 0.981993 0.474556 Br
0.874988 0.481804 0.223859 Br
0.122556 0.481591 0.474442 Br
0.873886 0.981879 0.724508 Br
0.123931 0.982125 0.974542 Br
0.373953 0.982004 0.224533 Br
0.623903 0.982097 0.474511 Br
0.873679 0.483515 0.722888 Br
0.123947 0.482005 0.974575 Br
0.375559 0.482287 0.229301 Br
0.373965 0.981953 0.724504 Br
0.623914 0.982078 0.974600 Br
0.623871 0.482144 0.974834 Br
0.974575 0.017917 0.373981 Br
0.224616 0.017858 0.623837 Br
0.974000 0.517944 0.374261 Br
0.224543 0.518406 0.623399 Br
0.974604 0.017912 0.873841 Br
0.224558 0.017977 0.123945 Br
0.474558 0.017896 0.373995 Br
0.724656 0.017928 0.623795 Br
0.974437 0.517865 0.873602 Br
0.225705 0.517826 0.124139 Br
0.474599 0.017923 0.873843 Br
0.724582 0.018099 0.123964 Br
0.474885 0.517668 0.874540 Br
0.724729 0.518140 0.124101 Br
0.025583 0.767877 0.126152 Br
0.275738 0.767706 0.376131 Br
0.025485 0.267996 0.126103 Br
0.025396 0.767897 0.625977 Br
0.275527 0.768059 0.875973 Br
0.524936 0.767891 0.125974 Br
0.775068 0.767835 0.376070 Br
0.025264 0.267919 0.625937 Br
0.275583 0.268003 0.876078 Br
0.525551 0.268080 0.126244 Br
0.775050 0.268807 0.376432 Br
0.525557 0.767826 0.625984 Br
0.775594 0.768136 0.875884 Br
0.775710 0.267404 0.876260 Br
0.126109 0.231980 0.275462 Br
0.375931 0.232266 0.525281 Br
0.126241 0.732120 0.275472 Br
0.126159 0.232053 0.775483 Br
0.376142 0.232138 0.025583 Br
0.626173 0.232155 0.275735 Br
0.875757 0.232375 0.525619 Br
0.126065 0.732175 0.775443 Br
0.376117 0.731984 0.025476 Br
0.875876 0.731040 0.524773 Br
0.626297 0.232481 0.774582 Br
0.876061 0.232067 0.025547 Br
0.626061 0.732234 0.775869 Br
0.876084 0.732064 0.025420 Br
0.874389 0.767987 0.224322 Br
0.124089 0.767778 0.474556 Br
0.873871 0.268112 0.224404 Br
0.123715 0.268400 0.474654 Br
0.873820 0.768061 0.724533 Br
0.123931 0.767922 0.974471 Br
0.373829 0.768004 0.224237 Br
0.623932 0.769501 0.473741 Br
0.874043 0.267273 0.724526 Br
0.123922 0.267978 0.974538 Br
0.374009 0.267933 0.224616 Br
0.373927 0.767923 0.724489 Br
0.623900 0.767910 0.974634 Br
0.623903 0.267914 0.974567 Br
0.974495 0.232096 0.373930 Br
0.224650 0.232212 0.623916 Br
0.974632 0.732256 0.373985 Br
0.224579 0.731774 0.623776 Br
0.974500 0.232062 0.873817 Br
0.224473 0.231957 0.123955 Br
0.474476 0.232093 0.373969 Br
0.724783 0.231238 0.624125 Br
0.974551 0.732090 0.873841 Br
0.224641 0.731996 0.123927 Br
0.474477 0.232074 0.874134 Br
0.724472 0.231981 0.124141 Br
0.474499 0.731928 0.873744 Br
0.724880 0.732125 0.123804 Br
0.126142 0.018017 0.275478 Br
0.376176 0.017799 0.525429 Br
0.126613 0.517761 0.276391 Br
0.126120 0.018030 0.775407 Br
0.376140 0.017939 0.025413 Br
0.626113 0.018029 0.275363 Br
0.876005 0.017884 0.525400 Br
0.126176 0.517653 0.775154 Br
0.376192 0.518009 0.025535 Br
0.871584 0.518340 0.526182 Br
0.626112 0.018012 0.775392 Br
0.876077 0.017889 0.025439 Br
0.626141 0.517579 0.776077 Br
0.876053 0.518013 0.025480 Br
0.025487 0.982053 0.126124 Br
0.275392 0.982105 0.376164 Br
0.025693 0.482101 0.126193 Br
0.025460 0.982013 0.625978 Br
0.275470 0.982039 0.876032 Br
0.525486 0.981989 0.126140 Br
0.775495 0.982165 0.376174 Br
0.024746 0.481823 0.625190 Br
0.275757 0.481904 0.875747 Br
0.524748 0.482752 0.128244 Br
0.773955 0.479606 0.376945 Br
0.525447 0.982066 0.625961 Br
0.775454 0.981844 0.876027 Br
0.775608 0.482724 0.875590 Br
0.386030 0.372618 0.353762 Cs
0.636923 0.367213 0.616985 Cs
0.605295 0.634147 0.379612 Cs
0.351768 0.626791 0.638893 Cs
0.394696 0.372035 0.614926 Cs
0.646223 0.372545 0.360935 Cs
0.614596 0.627099 0.650172 Cs
0.363426 0.625745 0.392865 Cs
0.249905 0.249465 0.249712 Pb
0.499722 0.249707 0.499719 Pb
0.499861 0.249394 0.249526 Pb
0.249686 0.249822 0.499980 Pb
0.502441 0.499333 0.251436 Pb
0.246486 0.500223 0.499606 Pb
0.250117 0.499762 0.250074 Pb
0.493762 0.502087 0.505283 Pb
0.483623 0.624395 0.730479 Br
0.732514 0.623523 0.478085 Br
0.735653 0.374688 0.738707 Br
0.481203 0.376675 0.486285 Br
0.269031 0.624892 0.264602 Br
0.527786 0.623557 0.514189 Br
0.515927 0.374469 0.269437 Br
0.265123 0.375883 0.519437 Br
0.374248 0.482058 0.723379 Br
0.721301 0.517173 0.622361 Br
0.522919 0.265289 0.626126 Br
0.274879 0.267476 0.376190 Br
0.626247 0.737061 0.271154 Br
0.376584 0.728662 0.524564 Br
0.374007 0.267284 0.725413 Br
0.623657 0.270365 0.476062 Br
0.474526 0.732395 0.374017 Br
0.724787 0.732000 0.623676 Br
0.628213 0.518891 0.274259 Br
0.376803 0.521453 0.524271 Br
0.530083 0.481271 0.626930 Br
0.276424 0.481828 0.376775 Br
0.502435 0.510300 0.381181 Br
