Cs63 Pb64 Br192
1.0
16.840035 0.000000 16.155961
0.000000 23.527616 0.000000
-16.840035 0.000000 16.155961
Cs Pb Br Cs Pb Br Cs
56 56 168 6 8 24 1
direct
0.886432 0.875100 0.354014 Cs
0.136686 0.874956 0.603790 Cs
0.886509 0.375489 0.354026 Cs
0.137866 0.375770 0.604112 Cs
0.886561 0.875208 0.853887 Cs
0.136856 0.875029 0.104090 Cs
0.387997 0.875098 0.354996 Cs
0.636517 0.875631 0.603892 Cs
0.886517 0.375343 0.853913 Cs
0.136585 0.375559 0.103981 Cs
0.386284 0.874918 0.854328 Cs
0.635963 0.874851 0.104978 Cs
0.386220 0.375637 0.854014 Cs
0.636080 0.375852 0.104929 Cs
0.106478 0.125317 0.387192 Cs
0.353701 0.125474 0.635962 Cs
0.109810 0.625164 0.387046 Cs
0.103845 0.125293 0.886348 Cs
0.354062 0.125518 0.138116 Cs
0.603830 0.125491 0.386431 Cs
0.853890 0.125340 0.636326 Cs
0.104104 0.625303 0.886642 Cs
0.353356 0.625501 0.138741 Cs
0.853752 0.625389 0.635282 Cs
0.603876 0.125264 0.886614 Cs
0.853692 0.125311 0.136389 Cs
0.603432 0.625467 0.886569 Cs
0.854575 0.625260 0.136162 Cs
0.896747 0.875021 0.114432 Cs
0.145798 0.875417 0.364329 Cs
0.896827 0.375492 0.114445 Cs
0.145627 0.375747 0.364106 Cs
0.897125 0.874987 0.613941 Cs
0.146879 0.875068 0.864306 Cs
0.396797 0.874699 0.114723 Cs
0.646096 0.874794 0.364114 Cs
0.897541 0.375628 0.613827 Cs
0.146973 0.375478 0.864284 Cs
0.396860 0.376329 0.114525 Cs
0.397160 0.875827 0.614338 Cs
0.646651 0.875152 0.864310 Cs
0.646269 0.375412 0.864170 Cs
0.114371 0.125317 0.146859 Cs
0.364434 0.126330 0.396490 Cs
0.117384 0.625239 0.148643 Cs
0.114314 0.125328 0.646591 Cs
0.364086 0.125308 0.896697 Cs
0.613908 0.125383 0.147206 Cs
0.864196 0.125324 0.396555 Cs
0.115116 0.625322 0.645633 Cs
0.364288 0.625214 0.896643 Cs
0.614370 0.625387 0.147388 Cs
0.864620 0.625262 0.397493 Cs
0.613861 0.125268 0.646216 Cs
0.864255 0.125241 0.896864 Cs
0.864028 0.625267 0.896386 Cs
0.749948 0.750002 0.250508 Pb
0.001558 0.750363 0.499869 Pb
0.750028 0.250755 0.250266 Pb
0.000352 0.250594 0.500135 Pb
0.750139 0.750569 0.750182 Pb
0.000377 0.750043 0.000455 Pb
0.251338 0.750102 0.252672 Pb
0.500194 0.749103 0.499743 Pb
0.750112 0.250440 0.750122 Pb
0.000197 0.250508 0.000207 Pb
0.250233 0.750416 0.749847 Pb
0.500290 0.750221 0.000981 Pb
0.250193 0.250520 0.750082 Pb
0.500083 0.250520 0.000236 Pb
0.000368 0.750132 0.250302 Pb
0.253273 0.749593 0.499756 Pb
0.000291 0.250437 0.250244 Pb
0.000323 0.750287 0.750113 Pb
0.250445 0.750368 0.000694 Pb
0.500433 0.749377 0.253268 Pb
0.750099 0.750570 0.500088 Pb
0.000221 0.250661 0.750079 Pb
0.250311 0.250472 0.000336 Pb
0.750222 0.250712 0.500136 Pb
0.500150 0.750633 0.749872 Pb
0.750113 0.750468 0.000240 Pb
0.500209 0.250429 0.750139 Pb
0.750126 0.250651 0.000237 Pb
0.000210 0.000492 0.250183 Pb
0.250489 -0.000020 0.500192 Pb
0.000579 0.500757 0.250325 Pb
0.000197 0.000355 0.750104 Pb
0.250334 0.000495 0.000290 Pb
0.500136 0.000481 0.250227 Pb
0.750163 0.000347 0.500101 Pb
0.000295 0.500601 0.750050 Pb
0.250435 0.500547 0.000713 Pb
0.750880 0.500874 0.500208 Pb
0.500187 0.000363 0.750159 Pb
0.750098 0.000320 0.000220 Pb
0.500277 0.500715 0.749954 Pb
0.750080 0.500487 0.000220 Pb
0.750151 0.000456 0.250250 Pb
0.000278 0.000552 0.500121 Pb
0.750019 0.501153 0.250551 Pb
0.002513 0.500578 0.499991 Pb
0.750166 0.000577 0.750174 Pb
0.000262 0.000274 0.000287 Pb
0.250269 0.000031 0.250412 Pb
0.500210 0.000289 0.500155 Pb
0.750215 0.500407 0.750321 Pb
0.000398 0.500684 0.000432 Pb
0.250188 0.000465 0.750137 Pb
0.500076 0.000481 0.000289 Pb
0.250324 0.500789 0.749865 Pb
0.500312 0.500594 0.001081 Pb
0.984247 0.125687 0.230549 Br
0.236226 0.126254 0.482507 Br
0.985456 0.625621 0.229741 Br
0.235561 0.625821 0.486661 Br
0.984615 0.125733 0.731041 Br
0.234225 0.125703 0.980778 Br
0.484634 0.126347 0.232513 Br
0.734679 0.125774 0.480971 Br
0.984702 0.625672 0.730190 Br
0.234343 0.625647 0.981614 Br
0.485080 0.626108 0.228835 Br
0.484429 0.125655 0.731088 Br
0.734675 0.125692 0.981178 Br
0.734560 0.625713 0.980663 Br
0.230620 0.876240 0.234273 Br
0.482915 0.876126 0.485503 Br
0.229774 0.375759 0.233771 Br
0.230891 0.875902 0.734833 Br
0.481048 0.875814 0.984898 Br
0.731624 0.875827 0.234807 Br
0.981865 0.875931 0.484208 Br
0.231615 0.375568 0.735195 Br
0.481000 0.375544 0.984613 Br
0.730907 0.375914 0.235363 Br
0.982185 0.375672 0.483905 Br
0.731213 0.875902 0.734843 Br
0.981086 0.875514 0.984663 Br
0.981082 0.375626 0.984607 Br
0.769660 0.125862 0.266238 Br
0.020473 0.125819 0.516042 Br
0.772142 0.625832 0.265789 Br
0.021029 0.625771 0.515100 Br
0.770320 0.125753 0.766487 Br
0.019712 0.125603 0.016183 Br
0.268788 0.126141 0.266695 Br
0.519425 0.126087 0.515699 Br
0.769568 0.625735 0.765755 Br
0.020963 0.625532 0.017322 Br
0.269777 0.125705 0.766247 Br
0.520194 0.125742 0.016422 Br
0.270245 0.625788 0.765734 Br
0.520419 0.625638 0.016440 Br
0.015556 0.875811 0.269204 Br
0.266101 0.876459 0.521100 Br
0.015542 0.375492 0.269115 Br
0.016378 0.875728 0.769935 Br
0.266652 0.875903 0.019323 Br
0.516566 0.876238 0.268366 Br
0.767092 0.876171 0.520072 Br
0.016382 0.375708 0.770057 Br
0.266561 0.375470 0.019366 Br
0.767116 0.375490 0.519805 Br
0.516221 0.875994 0.770574 Br
0.765974 0.875755 0.020324 Br
0.515873 0.375531 0.769321 Br
0.766109 0.375690 0.020272 Br
0.874127 0.982366 0.224607 Br
0.124158 0.982637 0.474744 Br
0.874410 0.482232 0.224831 Br
0.126464 0.482487 0.476156 Br
0.874189 0.982138 0.724583 Br
0.124180 0.982223 0.974640 Br
0.374248 0.982351 0.224606 Br
0.624439 0.982484 0.474523 Br
0.874331 0.482101 0.724817 Br
0.124181 0.482203 0.974778 Br
0.375553 0.481551 0.225899 Br
0.374195 0.982471 0.724946 Br
0.624178 0.982234 0.974697 Br
0.624334 0.482148 0.974783 Br
0.974762 0.018384 0.374112 Br
0.224674 0.018342 0.624353 Br
0.975881 0.518581 0.374205 Br
0.225221 0.517902 0.624551 Br
0.974596 0.018198 0.874124 Br
0.224713 0.018332 0.124082 Br
0.474623 0.018301 0.374180 Br
0.724713 0.018472 0.624262 Br
0.974687 0.518424 0.874093 Br
0.226398 0.516798 0.124714 Br
0.474633 0.018387 0.874234 Br
0.724547 0.018328 0.124112 Br
0.474839 0.518176 0.874370 Br
0.724715 0.518270 0.124183 Br
0.025833 0.768385 0.126135 Br
0.272105 0.775363 0.376702 Br
0.025878 0.268238 0.126166 Br
0.025931 0.768313 0.626404 Br
0.275691 0.768179 0.876487 Br
0.525432 0.768081 0.126377 Br
0.776168 0.768427 0.376290 Br
0.026364 0.268795 0.626330 Br
0.275851 0.268156 0.876355 Br
0.525861 0.268214 0.126173 Br
0.775916 0.268362 0.376263 Br
0.526850 0.769085 0.626990 Br
0.776158 0.768538 0.876450 Br
0.775875 0.268387 0.876283 Br
0.126147 0.232241 0.275806 Br
0.376489 0.233496 0.526319 Br
0.126018 0.733352 0.276095 Br
0.126129 0.232303 0.775822 Br
0.376235 0.231895 0.026064 Br
0.626291 0.232339 0.275815 Br
0.876356 0.232208 0.525802 Br
0.126148 0.732130 0.775865 Br
0.376269 0.731749 0.026207 Br
0.876789 0.733233 0.525768 Br
0.626301 0.232139 0.776016 Br
0.876198 0.232270 0.025785 Br
0.626496 0.732879 0.776803 Br
0.876266 0.732171 0.025681 Br
0.874368 0.768248 0.224697 Br
0.125144 0.768225 0.475750 Br
0.874126 0.268189 0.224606 Br
0.124173 0.268179 0.474538 Br
0.874229 0.768319 0.724780 Br
0.124133 0.768204 0.974676 Br
0.374620 0.768557 0.225338 Br
0.625053 0.771176 0.477227 Br
0.874120 0.268434 0.724468 Br
0.124103 0.268219 0.974571 Br
0.374269 0.269778 0.225399 Br
0.374230 0.768840 0.725291 Br
0.624297 0.768277 0.974712 Br
0.624159 0.268266 0.974660 Br
0.974810 0.232135 0.374210 Br
0.224658 0.232198 0.624344 Br
0.975020 0.732223 0.374150 Br
0.224504 0.733823 0.624698 Br
0.974619 0.232229 0.874119 Br
0.224792 0.232281 0.124292 Br
0.475044 0.233830 0.374420 Br
0.724707 0.232079 0.624298 Br
0.974703 0.732026 0.874187 Br
0.225546 0.734598 0.124738 Br
0.474664 0.232151 0.874251 Br
0.724608 0.232275 0.124144 Br
0.474754 0.732258 0.874385 Br
0.724803 0.732210 0.124105 Br
0.126130 0.018324 0.275809 Br
0.376395 0.018308 0.525842 Br
0.126482 0.517481 0.275530 Br
0.126175 0.018319 0.775895 Br
0.376293 0.019160 0.026387 Br
0.626348 0.018395 0.275900 Br
0.876358 0.018521 0.525853 Br
0.126238 0.518395 0.775950 Br
0.376354 0.519192 0.026421 Br
0.878144 0.517656 0.525869 Br
0.626359 0.018523 0.776003 Br
0.876239 0.018219 0.025849 Br
0.626670 0.517996 0.777379 Br
0.876312 0.518302 0.025714 Br
0.025862 0.982192 0.126136 Br
0.276282 0.982589 0.376290 Br
0.025757 0.482110 0.126037 Br
0.025865 0.982233 0.626262 Br
0.275902 0.982346 0.876276 Br
0.526016 0.982729 0.126162 Br
0.775897 0.982293 0.376204 Br
0.026601 0.482200 0.626458 Br
0.275713 0.482454 0.876392 Br
0.525506 0.482585 0.126436 Br
0.776864 0.482794 0.376377 Br
0.526354 0.982978 0.626468 Br
0.775869 0.982210 0.876266 Br
0.776303 0.482245 0.876539 Br
0.389326 0.376715 0.356596 Cs
0.636637 0.375576 0.603545 Cs
0.354525 0.625711 0.634901 Cs
0.399533 0.375591 0.615050 Cs
0.646332 0.377725 0.365081 Cs
0.616080 0.625399 0.648713 Cs
0.250258 0.251712 0.250430 Pb
0.500437 0.251318 0.500312 Pb
0.500309 0.251855 0.250346 Pb
0.250639 0.251948 0.500278 Pb
0.500863 0.502595 0.253438 Pb
0.254093 0.501446 0.499816 Pb
0.252561 0.500796 0.252699 Pb
0.500694 0.503514 0.499963 Pb
0.484639 0.625837 0.731457 Br
0.736684 0.625882 0.483748 Br
0.730968 0.375531 0.734766 Br
0.485543 0.376466 0.486688 Br
0.264340 0.625746 0.265412 Br
0.521399 0.626527 0.521540 Br
0.517708 0.376267 0.268915 Br
0.267641 0.375639 0.522390 Br
0.374459 0.482239 0.725592 Br
0.626160 0.481903 0.477638 Br
0.474190 0.516490 0.375074 Br
0.726122 0.518222 0.624842 Br
0.527144 0.267562 0.626657 Br
0.276499 0.269690 0.376428 Br
0.626866 0.732350 0.276393 Br
0.377259 0.738960 0.532132 Br
0.374171 0.268125 0.724802 Br
0.624516 0.268320 0.474327 Br
0.474111 0.734761 0.374958 Br
0.725121 0.733049 0.624668 Br
0.627216 0.519952 0.277124 Br
0.378369 0.512288 0.532580 Br
0.528281 0.483639 0.626970 Br
0.272515 0.475426 0.376681 Br
0.544213 0.626234 0.391029 Cs
