Cs7 Pb8 Br24
1.0
8.420018 0.000000 8.077981
0.000000 11.763808 0.000000
-8.420018 0.000000 8.077981
Cs Pb Br Cs
6 8 24 1
direct
0.270400 0.249998 0.207828 Cs
0.772111 0.250001 0.710980 Cs
0.202098 0.750001 0.762648 Cs
0.293395 0.250001 0.731436 Cs
0.779870 0.250001 0.225051 Cs
0.734077 0.750001 0.790943 Cs
-0.001829 -0.001514 0.001870 Pb
0.502491 -0.001018 0.497574 Pb
0.500331 -0.001752 -0.002184 Pb
0.002366 0.000061 0.497635 Pb
0.500332 0.501748 -0.002178 Pb
0.002366 0.499937 0.497636 Pb
-0.001831 0.501504 0.001874 Pb
0.502495 0.501024 0.497572 Pb
0.464972 0.749996 0.946712 Br
0.971592 0.750000 0.481529 Br
0.958659 0.250002 0.970028 Br
0.463644 0.250004 0.475942 Br
0.040490 0.749999 0.023702 Br
0.537325 0.750007 0.536909 Br
0.532436 0.249996 0.019416 Br
0.033685 0.250000 0.546028 Br
0.247442 0.463064 0.950734 Br
0.750027 0.453131 0.457716 Br
0.450708 0.513849 0.245165 Br
0.949964 0.530548 0.749006 Br
0.553965 0.032367 0.749742 Br
0.041648 0.048430 0.251633 Br
0.750456 0.961622 0.049697 Br
0.254128 0.975804 0.557452 Br
0.247441 0.036935 0.950734 Br
0.750029 0.046871 0.457719 Br
0.450709 0.986149 0.245167 Br
0.949966 0.969455 0.749007 Br
0.750457 0.538375 0.049694 Br
0.254129 0.524200 0.557452 Br
0.553965 0.467635 0.749742 Br
0.041647 0.451567 0.251634 Br
0.469682 0.749999 0.276975 Cs
