Cs4 Pb4 Br12                            
   1.0000000000000000     
     8.3349438581786153    0.0000000000000000    0.0000000000000000
     0.0000000000000000   11.7144792392126416    0.0000000000000000
     0.0000000000000000    0.0000000000000000    8.2395401647844757
   Cs   Pb   Br
     4     4    12
Direct
  0.0566421625083962  0.2500000000000000  0.4855575937969405
  0.4433578374916038  0.7500000000000000  0.9855575937969405
  0.5566421625083962  0.2500000000000000  0.0144424062030595
  0.9433578374916038  0.7500000000000000  0.5144424062030595
  0.0000000000000000  0.0000000000000000  0.0000000000000000
  0.5000000000000000  0.0000000000000000  0.5000000000000000
  0.5000000000000000  0.5000000000000000  0.5000000000000000
  0.0000000000000000  0.5000000000000000  0.0000000000000000
  0.5070745580395553  0.7500000000000000  0.4285742399707857
  0.9929254419604447  0.2500000000000000  0.9285742399707857
  0.0070745580395553  0.7500000000000000  0.0714257600292143
  0.4929254419604447  0.2500000000000000  0.5714257600292143
  0.2939643706383634  0.4637730336537871  0.2050151430137177
  0.2060356293616366  0.5362269663462129  0.7050151430137248
  0.7939643706383634  0.0362269663462129  0.2949848569862823
  0.7060356293616366  0.9637730336537871  0.7949848569862752
  0.2939643706383634  0.0362269663462129  0.2050151430137177
  0.2060356293616366  0.9637730336537871  0.7050151430137248
  0.7060356293616366  0.5362269663462129  0.7949848569862752
  0.7939643706383634  0.4637730336537871  0.2949848569862823

  0.00000000E+00  0.00000000E+00  0.00000000E+00
  0.00000000E+00  0.00000000E+00  0.00000000E+00
  0.00000000E+00  0.00000000E+00  0.00000000E+00
  0.00000000E+00  0.00000000E+00  0.00000000E+00
  0.00000000E+00  0.00000000E+00  0.00000000E+00
  0.00000000E+00  0.00000000E+00  0.00000000E+00
  0.00000000E+00  0.00000000E+00  0.00000000E+00
  0.00000000E+00  0.00000000E+00  0.00000000E+00
  0.00000000E+00  0.00000000E+00  0.00000000E+00
  0.00000000E+00  0.00000000E+00  0.00000000E+00
  0.00000000E+00  0.00000000E+00  0.00000000E+00
  0.00000000E+00  0.00000000E+00  0.00000000E+00
  0.00000000E+00  0.00000000E+00  0.00000000E+00
  0.00000000E+00  0.00000000E+00  0.00000000E+00
  0.00000000E+00  0.00000000E+00  0.00000000E+00
  0.00000000E+00  0.00000000E+00  0.00000000E+00
  0.00000000E+00  0.00000000E+00  0.00000000E+00
  0.00000000E+00  0.00000000E+00  0.00000000E+00
  0.00000000E+00  0.00000000E+00  0.00000000E+00
  0.00000000E+00  0.00000000E+00  0.00000000E+00
