Cs4 Pb4 Br12                            
   1.0000000000000000     
     8.3349438581786153    0.0000000000000000    0.0000000000000000
     0.0000000000000000   11.7144792392126416    0.0000000000000000
     0.0000000000000000    0.0000000000000000    8.2395401647844757
   Cs   Pb   Br
     4     4    12
Direct
  0.0566421625083983  0.2500000000000000  0.4855575937969416
  0.4433578374916015  0.7500000000000000  0.9855575937969420
  0.5566421625083984  0.2500000000000000  0.0144424062030582
  0.9433578374916016  0.7500000000000000  0.5144424062030580
 -0.0000000000000000  0.0000000000000000 -0.0000000000000000
  0.5000000000000000  0.0000000000000000  0.5000000000000000
  0.5000000000000000  0.5000000000000000  0.5000000000000000
 -0.0000000000000000  0.5000000000000000 -0.0000000000000000
  0.5070745580395561  0.7500000000000000  0.4285742399707860
  0.9929254419604439  0.2500000000000000  0.9285742399707859
  0.0070745580395560  0.7500000000000000  0.0714257600292141
  0.4929254419604438  0.2500000000000000  0.5714257600292141
  0.2939643706383626  0.4637730336537852  0.2050151430137211
  0.2060356293616375  0.5362269663462153  0.7050151430137213
  0.7939643706383626  0.0362269663462147  0.2949848569862790
  0.7060356293616374  0.9637730336537847  0.7949848569862787
  0.2939643706383626  0.0362269663462147  0.2050151430137211
  0.2060356293616375  0.9637730336537847  0.7050151430137213
  0.7060356293616374  0.5362269663462153  0.7949848569862787
  0.7939643706383626  0.4637730336537852  0.2949848569862790

  0.00000000E+00  0.00000000E+00  0.00000000E+00
  0.00000000E+00  0.00000000E+00  0.00000000E+00
  0.00000000E+00  0.00000000E+00  0.00000000E+00
  0.00000000E+00  0.00000000E+00  0.00000000E+00
  0.00000000E+00  0.00000000E+00  0.00000000E+00
  0.00000000E+00  0.00000000E+00  0.00000000E+00
  0.00000000E+00  0.00000000E+00  0.00000000E+00
  0.00000000E+00  0.00000000E+00  0.00000000E+00
  0.00000000E+00  0.00000000E+00  0.00000000E+00
  0.00000000E+00  0.00000000E+00  0.00000000E+00
  0.00000000E+00  0.00000000E+00  0.00000000E+00
  0.00000000E+00  0.00000000E+00  0.00000000E+00
  0.00000000E+00  0.00000000E+00  0.00000000E+00
  0.00000000E+00  0.00000000E+00  0.00000000E+00
  0.00000000E+00  0.00000000E+00  0.00000000E+00
  0.00000000E+00  0.00000000E+00  0.00000000E+00
  0.00000000E+00  0.00000000E+00  0.00000000E+00
  0.00000000E+00  0.00000000E+00  0.00000000E+00
  0.00000000E+00  0.00000000E+00  0.00000000E+00
  0.00000000E+00  0.00000000E+00  0.00000000E+00
