Cs8 Pb8 Br23
1.0
8.456489 0.000000 8.040301
0.000000 11.729847 0.000000
-8.456489 0.000000 8.040301
Cs Pb Br
8 8 23
direct
0.266503 0.251395 0.201975 Cs
0.770709 0.247032 0.723487 Cs
0.705251 0.755311 0.251644 Cs
0.210919 0.749693 0.780228 Cs
0.297097 0.254451 0.737527 Cs
0.790149 0.248400 0.221917 Cs
0.733422 0.750042 0.806525 Cs
0.228983 0.748409 0.278323 Cs
0.001227 0.000802 -0.001112 Pb
0.499787 0.006250 0.497688 Pb
0.498495 0.001309 -0.001249 Pb
0.002866 0.012220 0.501700 Pb
0.500194 0.500228 0.000447 Pb
-0.009662 0.495433 0.501138 Pb
-0.000135 0.499812 0.001087 Pb
0.503448 0.496555 0.499770 Pb
0.472917 0.750715 0.969484 Br
0.973106 0.250368 0.971057 Br
0.454557 0.248115 0.469274 Br
0.024071 0.750470 0.031450 Br
0.526322 0.250561 0.033979 Br
0.038058 0.255304 0.542627 Br
0.247747 0.471899 0.952531 Br
0.747925 0.448846 0.454830 Br
0.455838 0.538349 0.250298 Br
0.951115 0.536059 0.745699 Br
0.548638 0.029677 0.750230 Br
0.048879 0.031352 0.253327 Br
0.752828 0.975815 0.043632 Br
0.250975 0.954278 0.544660 Br
0.247942 0.031257 0.946624 Br
0.748428 0.031151 0.448227 Br
0.450805 0.963826 0.248945 Br
0.952384 0.962567 0.744687 Br
0.752445 0.527908 0.050457 Br
0.256929 0.548861 0.544876 Br
0.552315 0.469338 0.752031 Br
0.047263 0.468703 0.254205 Br
0.743387 0.737239 0.499409 Br
