Cs8 Pb8 Br23                            
   1.0000000000000000     
     8.4564889999999995    0.0000000000000000    8.0403009999999995
     0.0000000000000000   11.7298469999999995    0.0000000000000000
    -8.4564889999999995    0.0000000000000000    8.0403009999999995
   Cs   Pb   Br
     8     8    23
Direct
  0.2726779999999991  0.2498209999999972  0.1965519999999970
  0.7710310000000007  0.2514899999999969  0.7405439999999999
  0.7061810000000008  0.7497589999999974  0.2539999999999978
  0.2090460000000007  0.7488900000000029  0.7836830000000035
  0.2843500000000034  0.2519050000000007  0.7343290000000025
  0.7967620000000011  0.2500569999999982  0.2204410000000010
  0.7271720000000030  0.7498860000000036  0.7930909999999969
  0.2324920000000006  0.7477289999999996  0.2834069999999969
  0.0020590000000027  0.9985259999999982  0.9997490000000013
  0.4917360000000031  0.0082590000000025  0.4991950000000003
  0.5006630000000030  0.0011020000000030  0.9980090000000033
  0.0114349999999988  0.9972250000000003  0.5009859999999975
  0.5007779999999968  0.4993639999999999  0.9983239999999967
  0.0040059999999968  0.5001990000000021  0.5002070000000032
  0.0018340000000023  0.5012150000000020  0.0001430000000013
  0.4918570000000031  0.4976130000000012  0.4998209999999972
  0.4752930000000006  0.7503129999999985  0.9710620000000034
  0.9647999999999968  0.7509549999999976  0.4541139999999970
  0.9814999999999969  0.2499269999999996  0.9745199999999983
  0.4438570000000013  0.2486219999999975  0.4709829999999968
  0.0290549999999996  0.7499589999999969  0.0359830000000017
  0.5516229999999993  0.7449289999999991  0.5199309999999997
  0.5341840000000033  0.2501000000000033  0.0292579999999987
  0.0161360000000030  0.2493699999999990  0.5435779999999966
  0.2492390000000029  0.4710850000000022  0.9496510000000029
  0.4548139999999989  0.5286479999999969  0.2473079999999968
  0.9484470000000016  0.5351700000000008  0.7462299999999971
  0.5492929999999987  0.0319300000000027  0.7482279999999975
  0.0522429999999972  0.0363850000000028  0.2550960000000018
  0.7543459999999982  0.9757820000000024  0.0488519999999966
  0.2556340000000006  0.9536379999999980  0.5511010000000027
  0.2493759999999980  0.0297229999999971  0.9473079999999996
  0.4548169999999985  0.9701749999999976  0.2481689999999972
  0.9500069999999994  0.9636440000000022  0.7468920000000026
  0.7542770000000019  0.5242220000000017  0.0489590000000035
  0.2468819999999994  0.5406279999999981  0.5525519999999986
  0.5472820000000027  0.4685279999999992  0.7489490000000032
  0.0521570000000011  0.4629199999999969  0.2539239999999978
  0.7328830000000011  0.2616450000000015  0.4545790000000025

  0.00000000E+00  0.00000000E+00  0.00000000E+00
  0.00000000E+00  0.00000000E+00  0.00000000E+00
  0.00000000E+00  0.00000000E+00  0.00000000E+00
  0.00000000E+00  0.00000000E+00  0.00000000E+00
  0.00000000E+00  0.00000000E+00  0.00000000E+00
  0.00000000E+00  0.00000000E+00  0.00000000E+00
  0.00000000E+00  0.00000000E+00  0.00000000E+00
  0.00000000E+00  0.00000000E+00  0.00000000E+00
  0.00000000E+00  0.00000000E+00  0.00000000E+00
  0.00000000E+00  0.00000000E+00  0.00000000E+00
  0.00000000E+00  0.00000000E+00  0.00000000E+00
  0.00000000E+00  0.00000000E+00  0.00000000E+00
  0.00000000E+00  0.00000000E+00  0.00000000E+00
  0.00000000E+00  0.00000000E+00  0.00000000E+00
  0.00000000E+00  0.00000000E+00  0.00000000E+00
  0.00000000E+00  0.00000000E+00  0.00000000E+00
  0.00000000E+00  0.00000000E+00  0.00000000E+00
  0.00000000E+00  0.00000000E+00  0.00000000E+00
  0.00000000E+00  0.00000000E+00  0.00000000E+00
  0.00000000E+00  0.00000000E+00  0.00000000E+00
  0.00000000E+00  0.00000000E+00  0.00000000E+00
  0.00000000E+00  0.00000000E+00  0.00000000E+00
  0.00000000E+00  0.00000000E+00  0.00000000E+00
  0.00000000E+00  0.00000000E+00  0.00000000E+00
  0.00000000E+00  0.00000000E+00  0.00000000E+00
  0.00000000E+00  0.00000000E+00  0.00000000E+00
  0.00000000E+00  0.00000000E+00  0.00000000E+00
  0.00000000E+00  0.00000000E+00  0.00000000E+00
  0.00000000E+00  0.00000000E+00  0.00000000E+00
  0.00000000E+00  0.00000000E+00  0.00000000E+00
  0.00000000E+00  0.00000000E+00  0.00000000E+00
  0.00000000E+00  0.00000000E+00  0.00000000E+00
  0.00000000E+00  0.00000000E+00  0.00000000E+00
  0.00000000E+00  0.00000000E+00  0.00000000E+00
  0.00000000E+00  0.00000000E+00  0.00000000E+00
  0.00000000E+00  0.00000000E+00  0.00000000E+00
  0.00000000E+00  0.00000000E+00  0.00000000E+00
  0.00000000E+00  0.00000000E+00  0.00000000E+00
  0.00000000E+00  0.00000000E+00  0.00000000E+00
