Cs8 Pb8 Br23
1.0
8.456489 0.000000 8.040301
0.000000 11.729847 0.000000
-8.456489 0.000000 8.040301
Cs Pb Br
8 8 23
direct
0.272678 0.249821 0.196552 Cs
0.771031 0.251490 0.740544 Cs
0.706181 0.749759 0.254000 Cs
0.209046 0.748890 0.783683 Cs
0.284350 0.251905 0.734329 Cs
0.796762 0.250057 0.220441 Cs
0.727172 0.749886 0.793091 Cs
0.232492 0.747729 0.283407 Cs
0.002059 -0.001474 -0.000251 Pb
0.491736 0.008259 0.499195 Pb
0.500663 0.001102 -0.001991 Pb
0.011435 -0.002775 0.500986 Pb
0.500778 0.499364 -0.001676 Pb
0.004006 0.500199 0.500207 Pb
0.001834 0.501215 0.000143 Pb
0.491857 0.497613 0.499821 Pb
0.475293 0.750313 0.971062 Br
0.964800 0.750955 0.454114 Br
0.981500 0.249927 0.974520 Br
0.443857 0.248622 0.470983 Br
0.029055 0.749959 0.035983 Br
0.551623 0.744929 0.519931 Br
0.534184 0.250100 0.029258 Br
0.016136 0.249370 0.543578 Br
0.249239 0.471085 0.949651 Br
0.454814 0.528648 0.247308 Br
0.948447 0.535170 0.746230 Br
0.549293 0.031930 0.748228 Br
0.052243 0.036385 0.255096 Br
0.754346 0.975782 0.048852 Br
0.255634 0.953638 0.551101 Br
0.249376 0.029723 0.947308 Br
0.454817 0.970175 0.248169 Br
0.950007 0.963644 0.746892 Br
0.754277 0.524222 0.048959 Br
0.246882 0.540628 0.552552 Br
0.547282 0.468528 0.748949 Br
0.052157 0.462920 0.253924 Br
0.732883 0.261645 0.454579 Br
