Cs64 Pb64 Br191
1.0
16.840035 0.000000 16.155961
0.000000 23.527616 0.000000
-16.840035 0.000000 16.155961
Cs Pb Br Cs Pb Br
56 56 168 8 8 23
direct
0.885937 0.875132 0.353623 Cs
0.135506 0.875241 0.603801 Cs
0.886589 0.374707 0.353525 Cs
0.137429 0.374525 0.604481 Cs
0.886293 0.875143 0.853999 Cs
0.135599 0.875210 0.102934 Cs
0.386094 0.875226 0.354510 Cs
0.635266 0.874181 0.603537 Cs
0.886018 0.374860 0.853736 Cs
0.135963 0.374731 0.103456 Cs
0.386282 0.875122 0.853546 Cs
0.636191 0.875048 0.103514 Cs
0.385742 0.374733 0.854123 Cs
0.636228 0.374856 0.103470 Cs
0.103297 0.125130 0.385999 Cs
0.352667 0.123325 0.637382 Cs
0.104242 0.625981 0.385526 Cs
0.103443 0.124872 0.886157 Cs
0.353887 0.124841 0.135900 Cs
0.603721 0.125079 0.385157 Cs
0.853632 0.125010 0.636132 Cs
0.103930 0.625031 0.886220 Cs
0.353462 0.625116 0.135142 Cs
0.853701 0.625342 0.636581 Cs
0.603949 0.124751 0.886538 Cs
0.853496 0.124874 0.135946 Cs
0.603836 0.624827 0.886882 Cs
0.853678 0.625150 0.136374 Cs
0.896570 0.875077 0.113874 Cs
0.146162 0.875486 0.363878 Cs
0.896313 0.374924 0.113965 Cs
0.146173 0.374254 0.362235 Cs
0.895981 0.875142 0.613899 Cs
0.146117 0.875172 0.864189 Cs
0.395909 0.874915 0.113938 Cs
0.646610 0.873800 0.365554 Cs
0.898109 0.374572 0.614209 Cs
0.146406 0.374863 0.863688 Cs
0.396157 0.374949 0.113280 Cs
0.395996 0.876471 0.614532 Cs
0.646220 0.875062 0.864086 Cs
0.645718 0.374843 0.864138 Cs
0.113557 0.124855 0.146110 Cs
0.363777 0.124842 0.396565 Cs
0.114534 0.625144 0.146857 Cs
0.113944 0.125008 0.646495 Cs
0.363874 0.125030 0.896337 Cs
0.614041 0.124840 0.146503 Cs
0.863884 0.125063 0.396460 Cs
0.113483 0.625456 0.647962 Cs
0.363976 0.624963 0.896986 Cs
0.613778 0.625031 0.145855 Cs
0.864535 0.625386 0.394864 Cs
0.614460 0.124810 0.646432 Cs
0.864081 0.124912 0.896757 Cs
0.863758 0.625107 0.896242 Cs
0.750217 0.750423 0.249698 Pb
0.000049 0.750458 0.500019 Pb
0.750162 0.249636 0.249778 Pb
0.000147 0.250291 0.500035 Pb
0.750269 0.750699 0.750257 Pb
0.999988 0.749824 0.000016 Pb
0.249123 0.751912 0.249230 Pb
0.496467 0.748324 0.500407 Pb
0.750443 0.249333 0.750376 Pb
0.999964 0.250050 0.000015 Pb
0.249553 0.750608 0.750300 Pb
0.499947 0.750095 0.999924 Pb
0.249237 0.249275 0.750545 Pb
0.500125 0.249645 0.000168 Pb
0.000024 0.750397 0.249908 Pb
0.249498 0.750956 0.499935 Pb
0.999833 0.249679 0.249825 Pb
0.000011 0.750309 0.750178 Pb
0.249829 0.750330 0.999864 Pb
0.500126 0.750271 0.249516 Pb
0.750265 0.749809 0.500126 Pb
0.999815 0.249783 0.750100 Pb
0.249876 0.249713 0.999960 Pb
0.750023 0.250277 0.499987 Pb
0.499888 0.749476 0.750236 Pb
0.750112 0.750030 0.000097 Pb
0.500694 0.248692 0.750637 Pb
0.750103 0.249833 0.000063 Pb
0.999944 0.000040 0.249951 Pb
0.249493 0.000526 0.499879 Pb
0.000100 0.499874 0.249800 Pb
0.999931 0.000054 0.750064 Pb
0.249924 0.000089 0.999992 Pb
0.500080 -0.000411 0.249889 Pb
0.750100 0.000469 0.500049 Pb
0.999952 0.500048 0.750292 Pb
0.249787 0.499733 0.999912 Pb
0.752840 0.499926 0.499834 Pb
0.500201 0.999811 0.750308 Pb
0.750085 -0.000146 0.000067 Pb
0.499724 0.499868 0.749788 Pb
0.750210 0.499911 0.000073 Pb
0.750015 -0.000114 0.249994 Pb
0.999947 0.000383 0.499991 Pb
0.750369 0.499926 0.249397 Pb
1.000196 0.500923 0.500574 Pb
0.750122 -0.000288 0.750089 Pb
0.999954 -0.000008 0.000002 Pb
0.249909 0.000462 0.249935 Pb
0.500294 0.000991 0.500242 Pb
0.750460 0.499804 0.750409 Pb
1.000007 0.500107 0.000013 Pb
0.249710 0.999723 0.750234 Pb
0.499984 -0.000107 0.000053 Pb
0.249966 0.500404 0.750479 Pb
0.500021 0.499686 0.999940 Pb
0.984061 0.124983 0.230484 Br
0.233980 0.126486 0.480688 Br
0.984798 0.624944 0.231265 Br
0.238299 0.625413 0.477627 Br
0.984203 0.125043 0.730335 Br
0.234204 0.124971 0.980303 Br
0.484589 0.124649 0.231444 Br
0.733252 0.125849 0.480359 Br
0.983902 0.625019 0.731121 Br
0.234527 0.624904 0.981569 Br
0.483864 0.624773 0.231386 Br
0.484828 0.124145 0.729654 Br
0.734425 0.124889 0.980926 Br
0.734375 0.624908 0.980976 Br
0.229560 0.875814 0.233496 Br
0.486200 0.866983 0.486397 Br
0.231954 0.374473 0.234164 Br
0.229994 0.874878 0.734182 Br
0.480381 0.874861 0.984376 Br
0.729698 0.874991 0.235028 Br
0.980461 0.875367 0.484494 Br
0.233299 0.375048 0.734048 Br
0.480657 0.374762 0.984021 Br
0.732113 0.374960 0.233127 Br
0.982507 0.376170 0.483792 Br
0.729413 0.874860 0.733691 Br
0.980933 0.874867 0.984482 Br
0.980564 0.375103 0.984476 Br
0.769311 0.124937 0.265948 Br
0.019270 0.125755 0.515819 Br
0.767915 0.625013 0.266228 Br
0.021323 0.625400 0.515868 Br
0.769709 0.124615 0.765916 Br
0.019013 0.125054 0.015601 Br
0.270408 0.125002 0.266163 Br
0.518668 0.123456 0.514534 Br
0.767856 0.625036 0.765235 Br
0.019936 0.624928 0.015979 Br
0.267756 0.124605 0.766641 Br
0.519509 0.124791 0.016043 Br
0.266925 0.625176 0.768322 Br
0.518614 0.624835 0.015664 Br
0.015461 0.875101 0.269655 Br
0.264702 0.876055 0.519320 Br
0.015456 0.374852 0.269058 Br
0.015608 0.875053 0.769402 Br
0.265601 0.875096 0.019301 Br
0.515651 0.874518 0.271491 Br
0.764179 0.875253 0.519104 Br
0.015464 0.375039 0.769038 Br
0.265647 0.374851 0.018970 Br
0.766637 0.375594 0.520107 Br
0.516075 0.874120 0.767591 Br
0.765791 0.874863 0.019621 Br
0.513987 0.374290 0.767864 Br
0.765680 0.374949 0.019280 Br
0.873811 0.981930 0.224602 Br
0.123939 0.982419 0.474485 Br
0.874022 0.482255 0.224637 Br
0.132218 0.482562 0.475157 Br
0.873758 0.981905 0.724526 Br
0.123940 0.982172 0.974584 Br
0.373949 0.981691 0.224832 Br
0.623465 0.982470 0.474566 Br
0.873857 0.482195 0.724130 Br
0.123923 0.481923 0.974351 Br
0.373803 0.483163 0.223979 Br
0.373889 0.982270 0.724936 Br
0.623820 0.981972 0.974606 Br
0.623866 0.482068 0.974609 Br
0.974461 0.018081 0.374001 Br
0.224497 0.017980 0.623835 Br
0.975850 0.518082 0.374581 Br
0.225875 0.520711 0.623168 Br
0.974491 0.017939 0.873866 Br
0.224613 0.018218 0.123956 Br
0.474223 0.017235 0.374607 Br
0.724467 0.017932 0.623826 Br
0.974458 0.517970 0.873819 Br
0.223723 0.516228 0.123916 Br
0.474629 0.017888 0.873826 Br
0.724463 0.017850 0.123988 Br
0.474912 0.517790 0.872742 Br
0.724554 0.518079 0.124120 Br
0.025499 0.767922 0.126194 Br
0.275718 0.768242 0.375979 Br
0.025424 0.267898 0.126157 Br
0.025290 0.767966 0.626094 Br
0.275524 0.768224 0.875823 Br
0.525218 0.768088 0.126332 Br
0.775194 0.767822 0.376284 Br
0.025759 0.268197 0.626030 Br
0.275175 0.267932 0.876234 Br
0.525481 0.267999 0.126321 Br
0.775494 0.268178 0.376239 Br
0.527816 0.762300 0.625061 Br
0.775500 0.768092 0.876048 Br
0.775470 0.267768 0.876113 Br
0.126250 0.232037 0.275487 Br
0.376397 0.228948 0.526544 Br
0.125956 0.733312 0.275937 Br
0.125673 0.232132 0.775726 Br
0.376128 0.232012 0.025371 Br
0.626095 0.232271 0.275529 Br
0.875718 0.232419 0.525343 Br
0.126040 0.732339 0.775708 Br
0.376116 0.732282 0.025383 Br
0.876093 0.731862 0.525479 Br
0.626244 0.231888 0.775695 Br
0.876065 0.232085 0.025577 Br
0.625961 0.731830 0.776000 Br
0.876077 0.731925 0.025530 Br
0.873763 0.767978 0.224526 Br
0.123902 0.768045 0.474215 Br
0.873954 0.267845 0.224598 Br
0.124345 0.269045 0.474999 Br
0.873703 0.767997 0.724504 Br
0.123897 0.767914 0.974389 Br
0.373767 0.767496 0.225592 Br
0.622666 0.761064 0.475309 Br
0.873762 0.267879 0.724275 Br
0.123918 0.268001 0.974515 Br
0.373995 0.267308 0.223498 Br
0.373955 0.768416 0.724581 Br
0.623825 0.767916 0.974625 Br
0.623876 0.267916 0.974667 Br
0.974623 0.232130 0.374042 Br
0.224875 0.232139 0.623942 Br
0.974705 0.732209 0.374045 Br
0.223037 0.732748 0.623575 Br
0.974417 0.232106 0.873798 Br
0.224369 0.231812 0.124124 Br
0.474299 0.232115 0.374252 Br
0.724452 0.232193 0.623884 Br
0.974470 0.732025 0.873915 Br
0.224013 0.733557 0.123671 Br
0.475105 0.231710 0.873881 Br
0.724456 0.231950 0.124037 Br
0.474592 0.731927 0.873606 Br
0.724490 0.732042 0.124001 Br
0.126146 0.018195 0.275557 Br
0.376487 0.017332 0.525377 Br
0.126234 0.516107 0.276913 Br
0.125995 0.017863 0.775490 Br
0.376136 0.017939 0.025408 Br
0.625998 0.017720 0.275640 Br
0.875875 0.018089 0.525446 Br
0.126136 0.517604 0.775449 Br
0.376082 0.517696 0.025324 Br
0.880340 0.518338 0.525405 Br
0.625998 0.018043 0.775494 Br
0.876017 0.017864 0.025498 Br
0.625958 0.517597 0.775561 Br
0.876099 0.518102 0.025606 Br
0.025391 0.982114 0.126193 Br
0.275508 0.982052 0.376172 Br
0.025647 0.482110 0.126328 Br
0.025266 0.982229 0.626030 Br
0.275490 0.981904 0.876042 Br
0.525286 0.981773 0.126418 Br
0.775279 0.982059 0.376249 Br
0.026183 0.481901 0.626000 Br
0.275535 0.482054 0.875694 Br
0.525504 0.481877 0.125313 Br
0.776378 0.482061 0.376258 Br
0.525530 0.982207 0.625747 Br
0.775356 0.981862 0.876037 Br
0.775549 0.482215 0.876114 Br
0.383023 0.373957 0.346415 Cs
0.639309 0.374493 0.607299 Cs
0.607643 0.625299 0.381994 Cs
0.350118 0.629593 0.639448 Cs
0.396255 0.367866 0.622399 Cs
0.649670 0.375167 0.362500 Cs
0.617791 0.624613 0.653722 Cs
0.360810 0.627307 0.381035 Cs
0.249849 0.249058 0.249765 Pb
0.499138 0.250104 0.499770 Pb
0.500186 0.249753 0.249759 Pb
0.250281 0.250530 0.500177 Pb
0.500324 0.499428 0.249631 Pb
0.249698 0.501026 0.499805 Pb
0.249328 0.499310 0.249205 Pb
0.502786 0.491724 0.497022 Pb
0.483972 0.624308 0.729331 Br
0.735723 0.624840 0.480199 Br
0.732171 0.374759 0.736290 Br
0.463126 0.374110 0.485089 Br
0.261556 0.625265 0.258869 Br
0.516997 0.374743 0.270485 Br
0.269643 0.377010 0.522604 Br
0.373807 0.483654 0.722958 Br
0.627948 0.486700 0.472551 Br
0.476760 0.518979 0.373087 Br
0.724889 0.517772 0.623655 Br
0.525640 0.267995 0.625543 Br
0.275252 0.268077 0.376334 Br
0.625926 0.732517 0.274544 Br
0.375359 0.740879 0.530521 Br
0.373857 0.263070 0.728564 Br
0.622779 0.272050 0.475642 Br
0.476162 0.729539 0.374670 Br
0.724614 0.731776 0.623946 Br
0.626169 0.517442 0.274701 Br
0.526146 0.480283 0.623656 Br
0.277522 0.483088 0.376852 Br
0.423926 0.581470 0.517683 Br
