Cs2 Pb2 Br6                             
   1.0000000000000000     
     5.7783035327206660    5.7783035327206660   -0.1876524276524522
     5.9659559603731180    0.0000000000000000   -5.9659559603731180
    -0.0000000000000001    5.9659559603731180   -5.9659559603731180
   Cs   Pb   Br
     2     2     6
Direct
  0.7500000000000000  0.7500000000000000  0.7500000000000000
  0.2500000000000000  0.2500000000000000  0.2500000000000000
  0.0000000000000000  0.0000000000000000  0.0000000000000000
  0.5000000000000000  0.5000000000000000  0.5000000000000000
  0.2500000000000000  0.6871331729191184  0.2500000000000000
  0.7500000000000000  0.3128668270808816  0.7500000000000000
  0.2500000000000000  0.8128668270808816  0.6871331729191184
  0.7500000000000000  0.1871331729191184  0.3128668270808816
  0.2500000000000000  0.2500000000000000  0.8128668270808816
  0.7500000000000000  0.7500000000000000  0.1871331729191184

  0.00000000E+00  0.00000000E+00 -0.00000000E+00
  0.00000000E+00  0.00000000E+00 -0.00000000E+00
  0.00000000E+00  0.00000000E+00 -0.00000000E+00
  0.00000000E+00  0.00000000E+00 -0.00000000E+00
  0.00000000E+00  0.00000000E+00 -0.00000000E+00
  0.00000000E+00  0.00000000E+00 -0.00000000E+00
  0.00000000E+00  0.00000000E+00 -0.00000000E+00
  0.00000000E+00  0.00000000E+00 -0.00000000E+00
  0.00000000E+00  0.00000000E+00 -0.00000000E+00
  0.00000000E+00  0.00000000E+00 -0.00000000E+00
