Cs7 Pb8 Br24
1.0
8.420018 0.000000 8.077981
0.000000 11.763808 0.000000
-8.420018 0.000000 8.077981
Cs Pb Br Cs
6 8 24 1
direct
0.270624 0.250000 0.204434 Cs
0.773315 0.250001 0.715157 Cs
0.204075 0.750000 0.761101 Cs
0.298824 0.249999 0.732359 Cs
0.723924 0.750000 0.789933 Cs
0.230132 0.750000 0.296604 Cs
-0.002180 -0.001801 0.002041 Pb
0.504828 -0.000116 0.495144 Pb
0.500381 -0.003052 0.000571 Pb
-0.000258 0.002145 0.499886 Pb
0.500382 0.503052 0.000578 Pb
-0.000260 0.497856 0.499889 Pb
-0.002178 0.501798 0.002043 Pb
0.504827 0.500118 0.495140 Pb
0.459294 0.750001 0.951877 Br
0.979761 0.749998 0.476672 Br
0.970148 0.250000 0.969413 Br
0.456340 0.250000 0.469290 Br
0.050306 0.750001 0.028260 Br
0.526978 0.750000 0.534265 Br
0.525977 0.249999 0.026992 Br
0.038082 0.249999 0.550491 Br
0.247810 0.465888 0.947839 Br
0.750550 0.448825 0.457591 Br
0.439042 0.526262 0.246241 Br
0.948192 0.536038 0.749746 Br
0.549963 0.034877 0.750475 Br
0.053394 0.034391 0.253331 Br
0.751773 0.960042 0.045865 Br
0.253746 0.970209 0.549625 Br
0.247810 0.034113 0.947839 Br
0.750550 0.051175 0.457591 Br
0.439042 0.973738 0.246241 Br
0.948195 0.963963 0.749744 Br
0.751772 0.539959 0.045865 Br
0.253746 0.529791 0.549625 Br
0.549962 0.465124 0.750475 Br
0.053390 0.465607 0.253332 Br
0.768624 0.375000 0.235372 Cs
