Cs64 Pb64 Br191
1.0
16.840035 0.000000 16.155961
0.000000 23.527616 0.000000
-16.840035 0.000000 16.155961
Cs Pb Br Cs Pb Br
56 56 168 8 8 23
direct
0.883448 0.871668 0.356204 Cs
0.135350 0.873443 0.603719 Cs
0.885403 0.375469 0.353455 Cs
0.136027 0.375150 0.604091 Cs
0.886195 0.876218 0.853569 Cs
0.136149 0.875187 0.103514 Cs
0.383077 0.875262 0.350819 Cs
0.639752 0.881766 0.617162 Cs
0.886604 0.374797 0.853883 Cs
0.136026 0.374875 0.103526 Cs
0.386419 0.875219 0.853368 Cs
0.636233 0.874884 0.103501 Cs
0.386034 0.374906 0.853033 Cs
0.636369 0.375129 0.104157 Cs
0.103262 0.124756 0.386225 Cs
0.353299 0.124846 0.635965 Cs
0.103506 0.625058 0.388675 Cs
0.103553 0.125016 0.886464 Cs
0.352754 0.124970 0.135677 Cs
0.605693 0.125004 0.386272 Cs
0.853999 0.125055 0.635613 Cs
0.103598 0.625055 0.885712 Cs
0.355373 0.624988 0.135917 Cs
0.860110 0.628066 0.638585 Cs
0.603768 0.124844 0.885875 Cs
0.856476 0.125090 0.136114 Cs
0.603579 0.624865 0.888758 Cs
0.852826 0.624796 0.138167 Cs
0.895780 0.874401 0.114569 Cs
0.145847 0.872577 0.365902 Cs
0.896518 0.374945 0.114089 Cs
0.146247 0.375267 0.364378 Cs
0.896131 0.874100 0.614431 Cs
0.146815 0.875202 0.863971 Cs
0.396256 0.875085 0.113857 Cs
0.648589 0.882661 0.356280 Cs
0.895986 0.375399 0.614083 Cs
0.146751 0.374863 0.864082 Cs
0.395429 0.374252 0.113069 Cs
0.394315 0.874577 0.616550 Cs
0.646288 0.875510 0.865714 Cs
0.646058 0.375019 0.864309 Cs
0.113905 0.124912 0.146355 Cs
0.363662 0.124819 0.396288 Cs
0.113902 0.625010 0.146687 Cs
0.113824 0.124841 0.645997 Cs
0.363984 0.125031 0.896812 Cs
0.613576 0.125127 0.145381 Cs
0.865228 0.124740 0.399122 Cs
0.114396 0.625201 0.646521 Cs
0.363725 0.625059 0.896903 Cs
0.614604 0.624745 0.142984 Cs
0.863759 0.625524 0.392178 Cs
0.614243 0.125252 0.646177 Cs
0.864548 0.125204 0.897426 Cs
0.864092 0.624885 0.896620 Cs
0.750131 0.750732 0.250044 Pb
0.994260 0.747804 0.500536 Pb
0.750838 0.248334 0.249631 Pb
0.000067 0.250054 0.500081 Pb
0.750723 0.750666 0.753803 Pb
0.000016 0.750016 0.000107 Pb
0.249251 0.750029 0.249565 Pb
0.504480 0.755392 0.500175 Pb
0.750372 0.250414 0.750395 Pb
0.000107 0.250177 0.000070 Pb
0.250061 0.750087 0.750598 Pb
0.499768 0.750359 0.999915 Pb
0.249923 0.249617 0.750181 Pb
0.500004 0.250083 0.000013 Pb
0.000634 0.749986 0.250014 Pb
0.250318 0.749529 0.500205 Pb
0.000207 0.249885 0.250186 Pb
0.000276 0.750620 0.750734 Pb
0.249822 0.750222 0.999979 Pb
0.499588 0.750656 0.249519 Pb
0.732148 0.747332 0.501070 Pb
0.000078 0.249724 0.750076 Pb
0.249936 0.250038 -0.000057 Pb
0.749996 0.249010 0.499986 Pb
0.500245 0.749992 0.750462 Pb
0.750539 0.749854 0.000787 Pb
0.500040 0.249974 0.750307 Pb
0.750140 0.249912 0.000086 Pb
0.000278 -0.000568 0.250425 Pb
0.249835 0.999614 0.500088 Pb
0.000755 0.499874 0.250082 Pb
0.000123 0.000299 0.750017 Pb
0.249968 -0.000028 0.999968 Pb
0.499683 0.000573 0.249560 Pb
0.750761 0.995812 0.500605 Pb
0.000308 0.499350 0.750393 Pb
0.249747 0.500191 0.999914 Pb
0.745179 0.502549 0.500585 Pb
0.499771 0.000577 0.750339 Pb
0.750326 0.000515 0.000200 Pb
0.500276 0.500830 0.750205 Pb
0.750451 0.499761 0.000148 Pb
0.751667 0.001025 0.249246 Pb
0.999985 0.999145 0.500060 Pb
0.750980 0.498051 0.249124 Pb
0.997449 0.500139 0.500164 Pb
0.751311 0.002134 0.750996 Pb
0.000077 -0.000206 0.000115 Pb
0.249577 0.000123 0.249993 Pb
0.499982 -0.000259 0.499648 Pb
0.750497 0.499673 0.750687 Pb
0.000101 0.500286 0.000094 Pb
0.249787 0.000176 0.750150 Pb
0.499946 0.000181 0.000131 Pb
0.249974 0.499758 0.750345 Pb
0.499579 0.499497 0.999698 Pb
0.985492 0.124650 0.231926 Br
0.234544 0.124688 0.481032 Br
0.983929 0.624708 0.231403 Br
0.235295 0.624364 0.481192 Br
0.984354 0.125039 0.730140 Br
0.234431 0.125053 0.980963 Br
0.483193 0.124659 0.229727 Br
0.736043 0.127736 0.483839 Br
0.987175 0.624958 0.733567 Br
0.234199 0.625224 0.980664 Br
0.488726 0.623968 0.231499 Br
0.484521 0.125505 0.730052 Br
0.733989 0.125249 0.980338 Br
0.734383 0.624892 0.981308 Br
0.229851 0.874842 0.235526 Br
0.472178 0.870002 0.484819 Br
0.230538 0.374823 0.234780 Br
0.231411 0.874846 0.733852 Br
0.480645 0.875002 0.984130 Br
0.735960 0.875347 0.230560 Br
0.980721 0.873678 0.484726 Br
0.231527 0.374803 0.734242 Br
0.480059 0.374983 0.983526 Br
0.734771 0.373409 0.232795 Br
0.979334 0.374843 0.484150 Br
0.737173 0.876161 0.742063 Br
0.980039 0.874971 0.984881 Br
0.980751 0.375236 0.984723 Br
0.773585 0.124428 0.266949 Br
0.017585 0.124522 0.515705 Br
0.760349 0.624154 0.267035 Br
0.018295 0.624019 0.517881 Br
0.771369 0.126339 0.766353 Br
0.018784 0.125074 0.016020 Br
0.269572 0.124837 0.265939 Br
0.517217 0.124629 0.514586 Br
0.769320 0.625231 0.764082 Br
0.020154 0.625148 0.015747 Br
0.270213 0.124834 0.765954 Br
0.519098 0.125110 0.015154 Br
0.268246 0.624855 0.766995 Br
0.517213 0.624851 0.016256 Br
0.014424 0.874414 0.272281 Br
0.265914 0.874246 0.519756 Br
0.015753 0.374904 0.270345 Br
0.016145 0.875265 0.769748 Br
0.265848 0.875080 0.019666 Br
0.513954 0.874918 0.269843 Br
0.766842 0.874344 0.520438 Br
0.016190 0.374709 0.769673 Br
0.265248 0.375166 0.018983 Br
0.764471 0.384004 0.517110 Br
0.516917 0.875431 0.767637 Br
0.765445 0.875150 0.018975 Br
0.515996 0.375789 0.767388 Br
0.765776 0.375002 0.019849 Br
0.874339 0.982111 0.224478 Br
0.124048 0.981811 0.474682 Br
0.875035 0.482429 0.224759 Br
0.123612 0.482719 0.476349 Br
0.874252 0.982490 0.724119 Br
0.123967 0.982007 0.974568 Br
0.374049 0.982028 0.224498 Br
0.623408 0.985111 0.473647 Br
0.873859 0.482403 0.724550 Br
0.123856 0.482052 0.974453 Br
0.373500 0.481436 0.224115 Br
0.374179 0.982296 0.724895 Br
0.623867 0.982433 0.975032 Br
0.623783 0.482114 0.975331 Br
0.974432 0.017534 0.374171 Br
0.224692 0.017850 0.623922 Br
0.974383 0.518374 0.374159 Br
0.224792 0.517945 0.623904 Br
0.974645 0.018041 0.873943 Br
0.224493 0.017867 0.124023 Br
0.474466 0.017618 0.374184 Br
0.725093 0.018277 0.624243 Br
0.974468 0.517746 0.874108 Br
0.224502 0.517899 0.123988 Br
0.474661 0.017944 0.873752 Br
0.725329 0.019159 0.124290 Br
0.474642 0.518245 0.873500 Br
0.725179 0.517751 0.123606 Br
0.025765 0.768175 0.126539 Br
0.275400 0.767401 0.376203 Br
0.025455 0.267901 0.126249 Br
0.021994 0.767320 0.626148 Br
0.275823 0.768246 0.876209 Br
0.524752 0.768019 0.126379 Br
0.767773 0.764561 0.376501 Br
0.025476 0.268112 0.626044 Br
0.275644 0.267909 0.876087 Br
0.525391 0.268285 0.126359 Br
0.775819 0.267336 0.376449 Br
0.529423 0.768007 0.626180 Br
0.778342 0.767534 0.877349 Br
0.775466 0.268232 0.876156 Br
0.126321 0.232029 0.275796 Br
0.376610 0.232510 0.525533 Br
0.126405 0.730877 0.276746 Br
0.126215 0.231871 0.775481 Br
0.376194 0.232101 0.025530 Br
0.626259 0.231395 0.274964 Br
0.875674 0.233972 0.526489 Br
0.126564 0.732524 0.775102 Br
0.376112 0.732269 0.025503 Br
0.871412 0.728466 0.518419 Br
0.626136 0.231941 0.775295 Br
0.876074 0.232241 0.025463 Br
0.626481 0.733669 0.779863 Br
0.876177 0.731096 0.026856 Br
0.874392 0.765709 0.226146 Br
0.126167 0.764617 0.478318 Br
0.874163 0.267742 0.224525 Br
0.124014 0.268025 0.474738 Br
0.874084 0.767131 0.726172 Br
0.123864 0.768159 0.974502 Br
0.373656 0.767663 0.225050 Br
0.622473 0.803097 0.481953 Br
0.873885 0.268293 0.724427 Br
0.123968 0.267912 0.974559 Br
0.374086 0.267984 0.224698 Br
0.374756 0.767384 0.725198 Br
0.623894 0.767565 0.975124 Br
0.623858 0.268034 0.974786 Br
0.974485 0.232205 0.374114 Br
0.224611 0.231958 0.623877 Br
0.974952 0.731106 0.374039 Br
0.226054 0.731673 0.624210 Br
0.974654 0.232109 0.873899 Br
0.224532 0.232091 0.124024 Br
0.474537 0.232144 0.374549 Br
0.724483 0.232836 0.623863 Br
0.974530 0.732115 0.874462 Br
0.224498 0.732138 0.123946 Br
0.474698 0.232174 0.873702 Br
0.724786 0.231499 0.124100 Br
0.474570 0.731916 0.873664 Br
0.724694 0.731845 0.123587 Br
0.126322 0.017712 0.275811 Br
0.376481 0.017688 0.525235 Br
0.126604 0.518841 0.276853 Br
0.126344 0.018172 0.775615 Br
0.376191 0.017906 0.025568 Br
0.626345 0.020346 0.273102 Br
0.875914 0.016469 0.526293 Br
0.126300 0.517473 0.775351 Br
0.376041 0.517822 0.025333 Br
0.872772 0.523410 0.522680 Br
0.626417 0.017609 0.774311 Br
0.876121 0.017845 0.025673 Br
0.626340 0.518189 0.777639 Br
0.876054 0.518427 0.026045 Br
0.025383 0.981830 0.126304 Br
0.275224 0.982181 0.376259 Br
0.025783 0.482102 0.126410 Br
0.025757 0.981714 0.626169 Br
0.275664 0.981949 0.876125 Br
0.525448 0.981847 0.126207 Br
0.776088 0.982589 0.376386 Br
0.024033 0.481897 0.626050 Br
0.275713 0.481970 0.876100 Br
0.522967 0.480235 0.126152 Br
0.773203 0.485061 0.376304 Br
0.523647 0.983649 0.625312 Br
0.776423 0.984306 0.876625 Br
0.775949 0.482006 0.875856 Br
0.384028 0.374621 0.353320 Cs
0.636678 0.374776 0.605474 Cs
0.603503 0.619819 0.363812 Cs
0.350067 0.625319 0.637046 Cs
0.395925 0.375044 0.615915 Cs
0.648768 0.371108 0.360832 Cs
0.621927 0.628358 0.655390 Cs
0.360720 0.626253 0.392417 Cs
0.249762 0.249612 0.249927 Pb
0.500035 0.248236 0.500250 Pb
0.499702 0.249328 0.249698 Pb
0.249696 0.249771 0.500064 Pb
0.498191 0.497220 0.248855 Pb
0.249687 0.499649 0.500071 Pb
0.249177 0.499795 0.249715 Pb
0.500368 0.496615 0.499639 Pb
0.484863 0.625701 0.727090 Br
0.730687 0.375508 0.734819 Br
0.479517 0.379834 0.485594 Br
0.269082 0.624840 0.263439 Br
0.514128 0.373781 0.272177 Br
0.266776 0.374824 0.519942 Br
0.374380 0.482744 0.724486 Br
0.622704 0.474063 0.472240 Br
0.475391 0.521237 0.375198 Br
0.724841 0.518200 0.623908 Br
0.525485 0.267851 0.625415 Br
0.275292 0.267714 0.376293 Br
0.625543 0.738688 0.271279 Br
0.383137 0.726843 0.522788 Br
0.374117 0.267742 0.724636 Br
0.623427 0.267581 0.474798 Br
0.482054 0.726219 0.376338 Br
0.725409 0.740076 0.626507 Br
0.625915 0.506805 0.267751 Br
0.378336 0.520989 0.524632 Br
0.528479 0.485757 0.625037 Br
0.275470 0.482405 0.376239 Br
0.666909 0.639504 0.501921 Br
