Cs64 Pb64 Br191
1.0
16.840035 0.000000 16.155961
0.000000 23.527616 0.000000
-16.840035 0.000000 16.155961
Cs Pb Br Cs Pb Br
56 56 168 8 8 23
direct
0.885905 0.875107 0.353444 Cs
0.135712 0.875036 0.603733 Cs
0.885641 0.375390 0.352625 Cs
0.135222 0.374819 0.606680 Cs
0.886390 0.875201 0.853868 Cs
0.135985 0.875128 0.103482 Cs
0.385781 0.875577 0.353135 Cs
0.636426 0.875406 0.603522 Cs
0.885784 0.374681 0.853290 Cs
0.136170 0.374878 0.103908 Cs
0.386018 0.874976 0.853631 Cs
0.636038 0.875075 0.103809 Cs
0.387096 0.374646 0.849849 Cs
0.637514 0.374605 0.102964 Cs
0.102758 0.124842 0.385723 Cs
0.353981 0.124583 0.636376 Cs
0.102647 0.625876 0.386201 Cs
0.103375 0.124783 0.886184 Cs
0.353365 0.124869 0.135836 Cs
0.603365 0.124820 0.385626 Cs
0.856108 0.123775 0.636288 Cs
0.103514 0.625018 0.885773 Cs
0.353530 0.625287 0.135765 Cs
0.859245 0.627891 0.638746 Cs
0.603850 0.125588 0.885252 Cs
0.853949 0.124802 0.136211 Cs
0.607113 0.624784 0.885493 Cs
0.853422 0.625227 0.136470 Cs
0.896594 0.875171 0.114048 Cs
0.146407 0.875158 0.363839 Cs
0.896439 0.374982 0.113926 Cs
0.147068 0.374750 0.364117 Cs
0.895936 0.875012 0.613703 Cs
0.146710 0.875130 0.864298 Cs
0.396347 0.875407 0.113382 Cs
0.646664 0.875582 0.363776 Cs
0.895693 0.374475 0.614357 Cs
0.147619 0.374888 0.863896 Cs
0.396053 0.374770 0.112676 Cs
0.396354 0.875201 0.614146 Cs
0.646346 0.875007 0.864203 Cs
0.646934 0.375043 0.863159 Cs
0.113789 0.124946 0.146298 Cs
0.363643 0.124690 0.396230 Cs
0.113822 0.625143 0.146103 Cs
0.114304 0.125005 0.646115 Cs
0.364115 0.124904 0.896436 Cs
0.613943 0.124836 0.145925 Cs
0.864312 0.124872 0.396340 Cs
0.112961 0.625655 0.646721 Cs
0.364380 0.624483 0.897123 Cs
0.614275 0.625738 0.144635 Cs
0.861366 0.625633 0.395861 Cs
0.612834 0.122309 0.645960 Cs
0.864748 0.124616 0.899178 Cs
0.865241 0.625355 0.899417 Cs
0.750506 0.750738 0.249642 Pb
0.999821 0.750172 0.499706 Pb
0.750303 0.249619 0.249778 Pb
-0.000110 0.249745 0.499872 Pb
0.750428 0.750349 0.750627 Pb
0.000101 0.750239 0.000082 Pb
0.249727 0.750437 0.249818 Pb
0.499488 0.751176 0.500006 Pb
0.753377 0.247395 0.750796 Pb
0.000080 0.250188 0.999986 Pb
0.249814 0.750395 0.750317 Pb
0.499968 0.749849 0.999545 Pb
0.249667 0.249011 0.750711 Pb
0.500035 0.250078 0.000120 Pb
0.000107 0.750184 0.249973 Pb
0.249896 0.750614 0.499880 Pb
0.000125 0.250209 0.249999 Pb
0.000281 0.750726 0.750447 Pb
0.249900 0.750086 0.999983 Pb
0.499301 0.751706 0.249036 Pb
0.749834 0.749771 0.499710 Pb
0.000485 0.249599 0.750325 Pb
0.249930 0.249831 0.999997 Pb
0.750078 0.249689 0.500339 Pb
0.500172 0.749480 0.749772 Pb
0.750158 0.750474 0.000175 Pb
0.499984 0.248807 0.750568 Pb
0.750136 0.249501 0.000081 Pb
0.000036 0.000041 0.249962 Pb
0.249919 0.999848 0.499968 Pb
0.000138 0.500085 0.249862 Pb
0.000170 0.999826 0.750170 Pb
0.249976 0.000062 0.999975 Pb
0.499890 0.000503 0.249797 Pb
0.749952 1.000263 0.499850 Pb
0.000513 0.499536 0.750686 Pb
0.249894 0.499943 0.999924 Pb
0.750248 0.500379 0.504111 Pb
0.500033 0.999288 0.750257 Pb
0.749958 0.999881 0.000059 Pb
0.500862 0.501381 0.745867 Pb
0.750486 0.499901 0.000478 Pb
0.750101 0.000302 0.249927 Pb
0.000044 0.999748 0.499947 Pb
0.749896 0.499837 0.250209 Pb
-0.000218 0.499567 0.499175 Pb
0.750265 0.999449 0.750209 Pb
0.000069 0.000019 0.000061 Pb
0.249908 0.000191 0.249906 Pb
0.499834 0.000322 0.499832 Pb
0.752616 0.502201 0.751482 Pb
0.000095 0.499795 0.000004 Pb
0.249913 0.999689 0.750057 Pb
0.500055 0.999950 0.999942 Pb
0.250399 0.500312 0.750355 Pb
0.500182 0.499483 0.998389 Pb
0.984503 0.125286 0.231094 Br
0.233077 0.124612 0.479776 Br
0.984465 0.624989 0.230615 Br
0.235465 0.624772 0.479599 Br
0.985550 0.124851 0.730956 Br
0.234322 0.125074 0.980263 Br
0.484268 0.125870 0.230023 Br
0.733949 0.125722 0.479053 Br
0.986646 0.624980 0.733922 Br
0.234372 0.624869 0.980447 Br
0.485324 0.625891 0.230450 Br
0.484499 0.124340 0.732053 Br
0.733508 0.124882 0.980936 Br
0.734760 0.624864 0.982642 Br
0.230441 0.875258 0.234245 Br
0.479807 0.876007 0.484013 Br
0.231449 0.375473 0.234978 Br
0.230412 0.874707 0.734097 Br
0.480865 0.874718 0.983697 Br
0.731437 0.875414 0.234160 Br
0.980276 0.874590 0.484193 Br
0.234074 0.374861 0.733791 Br
0.479220 0.375303 0.981985 Br
0.730587 0.374964 0.233689 Br
0.978969 0.375298 0.483978 Br
0.730297 0.874771 0.734506 Br
0.980796 0.875081 0.984546 Br
0.980203 0.375096 0.984216 Br
0.769855 0.125408 0.266107 Br
0.018620 0.125040 0.515850 Br
0.767503 0.624934 0.265970 Br
0.017188 0.624153 0.516694 Br
0.772657 0.123844 0.767593 Br
0.018943 0.125176 0.015699 Br
0.269613 0.125273 0.265635 Br
0.519340 0.126254 0.514725 Br
0.773100 0.625864 0.768528 Br
0.019031 0.624937 0.015261 Br
0.269357 0.124575 0.765854 Br
0.519596 0.125297 0.014943 Br
0.268934 0.624904 0.767664 Br
0.520101 0.624325 0.013660 Br
0.015688 0.875030 0.269664 Br
0.265631 0.874758 0.519832 Br
0.016123 0.375321 0.270347 Br
0.016493 0.875120 0.770066 Br
0.265609 0.874969 0.019237 Br
0.515741 0.875932 0.269073 Br
0.765366 0.874443 0.517922 Br
0.016660 0.374757 0.769634 Br
0.265197 0.375079 0.019373 Br
0.758447 0.375922 0.527937 Br
0.515739 0.873856 0.769440 Br
0.765817 0.875030 0.019993 Br
0.518752 0.375608 0.761332 Br
0.766473 0.374750 0.018254 Br
0.873918 0.982195 0.224563 Br
0.123883 0.981901 0.474584 Br
0.873870 0.482094 0.225002 Br
0.121444 0.482863 0.474936 Br
0.873948 0.981615 0.724486 Br
0.123927 0.982156 0.974571 Br
0.373949 0.982144 0.224413 Br
0.623874 0.982235 0.474591 Br
0.875926 0.482283 0.725210 Br
0.124011 0.481973 0.974412 Br
0.374120 0.482220 0.224272 Br
0.374030 0.981977 0.724580 Br
0.623884 0.982067 0.974513 Br
0.623956 0.481682 0.974099 Br
0.974537 0.017846 0.373989 Br
0.224647 0.017987 0.623866 Br
0.973432 0.518863 0.374109 Br
0.222251 0.518039 0.623645 Br
0.974588 0.017886 0.873912 Br
0.224509 0.018056 0.123896 Br
0.474538 0.018138 0.373883 Br
0.724939 0.017798 0.623811 Br
0.974575 0.517649 0.874003 Br
0.224733 0.517942 0.124010 Br
0.474611 0.017761 0.873829 Br
0.724557 0.018048 0.123959 Br
0.478544 0.517635 0.864087 Br
0.724433 0.517603 0.125163 Br
0.025625 0.767933 0.126282 Br
0.275717 0.767985 0.376185 Br
0.025458 0.268099 0.126188 Br
0.025037 0.767710 0.626016 Br
0.275664 0.767969 0.876038 Br
0.525139 0.768029 0.125362 Br
0.775248 0.767844 0.375876 Br
0.025237 0.267825 0.626060 Br
0.275911 0.268294 0.876032 Br
0.525979 0.268736 0.126101 Br
0.774360 0.269601 0.376675 Br
0.525716 0.768527 0.625655 Br
0.775551 0.768318 0.876185 Br
0.776302 0.266054 0.876335 Br
0.126172 0.232193 0.275590 Br
0.374738 0.230488 0.524066 Br
0.126237 0.731999 0.275619 Br
0.126403 0.232003 0.775815 Br
0.376227 0.232041 0.025566 Br
0.626096 0.232242 0.275660 Br
0.875466 0.232335 0.525503 Br
0.126325 0.732317 0.775616 Br
0.376204 0.731898 0.025188 Br
0.875748 0.731479 0.524518 Br
0.627053 0.233373 0.771092 Br
0.876046 0.232045 0.025851 Br
0.626340 0.731642 0.774539 Br
0.876155 0.732282 0.025868 Br
0.874170 0.767934 0.224379 Br
0.123803 0.767701 0.474313 Br
0.873849 0.268139 0.224648 Br
0.123184 0.267849 0.474467 Br
0.874254 0.768595 0.724875 Br
0.123975 0.767900 0.974514 Br
0.373729 0.768386 0.223935 Br
0.623693 0.768135 0.474465 Br
0.875315 0.266643 0.723114 Br
0.123909 0.268027 0.974422 Br
0.373996 0.268103 0.223988 Br
0.374061 0.767898 0.724606 Br
0.623978 0.767841 0.974611 Br
0.623943 0.268316 0.974068 Br
0.974279 0.232218 0.373941 Br
0.225499 0.232618 0.623794 Br
0.973933 0.731386 0.373980 Br
0.224021 0.732066 0.623833 Br
0.974311 0.232037 0.873900 Br
0.224406 0.232046 0.123815 Br
0.474347 0.232287 0.373456 Br
0.727297 0.225791 0.624307 Br
0.974614 0.732475 0.874032 Br
0.224518 0.732047 0.123938 Br
0.474791 0.232305 0.874277 Br
0.724542 0.232009 0.124190 Br
0.475752 0.729479 0.873176 Br
0.724740 0.732287 0.123844 Br
0.126147 0.018002 0.275473 Br
0.376094 0.018118 0.525447 Br
0.126358 0.518161 0.276280 Br
0.126192 0.017930 0.775438 Br
0.376165 0.017947 0.025391 Br
0.626100 0.018049 0.275359 Br
0.876004 0.017664 0.525173 Br
0.127684 0.517402 0.775141 Br
0.376491 0.518147 0.024896 Br
0.868789 0.517897 0.522861 Br
0.626151 0.017969 0.775406 Br
0.876073 0.017861 0.025662 Br
0.626876 0.518305 0.771516 Br
0.876094 0.517826 0.026264 Br
0.025510 0.982128 0.126157 Br
0.275366 0.982077 0.376144 Br
0.025579 0.481992 0.126390 Br
0.025302 0.982035 0.626050 Br
0.275548 0.981970 0.876051 Br
0.525480 0.982145 0.126072 Br
0.775452 0.982162 0.376126 Br
0.022906 0.482104 0.625388 Br
0.276921 0.481532 0.875749 Br
0.525794 0.481955 0.120423 Br
0.769659 0.478578 0.378636 Br
0.525386 0.982060 0.626030 Br
0.775438 0.981731 0.876114 Br
0.776536 0.483447 0.877256 Br
0.385178 0.374374 0.350047 Cs
0.637796 0.356870 0.623563 Cs
0.600629 0.632770 0.379718 Cs
0.349789 0.628538 0.637731 Cs
0.385557 0.367525 0.613839 Cs
0.646294 0.370926 0.360922 Cs
0.616894 0.628965 0.640668 Cs
0.364969 0.626129 0.394719 Cs
0.249821 0.249733 0.249832 Pb
0.498955 0.249941 0.498866 Pb
0.499804 0.250033 0.249373 Pb
0.248947 0.248868 0.499300 Pb
0.500172 0.500444 0.246696 Pb
0.247082 0.500520 0.500273 Pb
0.249854 0.500512 0.250040 Pb
0.490414 0.500649 0.498746 Pb
0.485770 0.624379 0.722067 Br
0.728245 0.623338 0.478291 Br
0.740541 0.374847 0.740239 Br
0.474340 0.376153 0.485175 Br
0.270047 0.625391 0.265436 Br
0.516613 0.625295 0.510062 Br
0.516223 0.376050 0.268136 Br
0.260271 0.375287 0.516469 Br
0.375487 0.481800 0.721182 Br
0.481056 0.518136 0.369986 Br
0.734789 0.526663 0.625981 Br
0.517856 0.263349 0.625722 Br
0.275449 0.267868 0.375922 Br
0.625994 0.735865 0.272035 Br
0.375991 0.732066 0.525354 Br
0.374095 0.264999 0.727165 Br
0.623220 0.270566 0.477591 Br
0.473944 0.734792 0.373354 Br
0.727492 0.733979 0.623722 Br
0.625882 0.517910 0.275928 Br
0.375127 0.514286 0.536309 Br
0.277533 0.483858 0.377053 Br
0.570716 0.487046 0.590547 Br
