Cs64 Pb64 Br191
1.0
16.840035 0.000000 16.155961
0.000000 23.527616 0.000000
-16.840035 0.000000 16.155961
Cs Pb Br Cs Pb Br
56 56 168 8 8 23
direct
0.885885 0.875132 0.353412 Cs
0.135984 0.875103 0.603643 Cs
0.886343 0.374640 0.351937 Cs
0.135935 0.374439 0.604940 Cs
0.886324 0.875134 0.853780 Cs
0.135921 0.875042 0.103318 Cs
0.385794 0.875324 0.353812 Cs
0.635882 0.875358 0.603414 Cs
0.885722 0.374939 0.853116 Cs
0.136323 0.374796 0.103759 Cs
0.385916 0.875144 0.853617 Cs
0.635993 0.874884 0.103892 Cs
0.386273 0.374430 0.853852 Cs
0.635659 0.375256 0.103443 Cs
0.103610 0.124895 0.385956 Cs
0.353619 0.124660 0.636110 Cs
0.100612 0.625738 0.385385 Cs
0.103529 0.124870 0.886098 Cs
0.353462 0.124776 0.135700 Cs
0.603192 0.124798 0.385834 Cs
0.854020 0.124573 0.636230 Cs
0.103564 0.625064 0.885910 Cs
0.356971 0.624902 0.137514 Cs
0.853507 0.626587 0.637240 Cs
0.603596 0.125025 0.885917 Cs
0.853752 0.124894 0.135894 Cs
0.604102 0.625524 0.886734 Cs
0.854642 0.625385 0.135848 Cs
0.896457 0.875333 0.113747 Cs
0.146366 0.875107 0.363858 Cs
0.896475 0.374373 0.112566 Cs
0.146946 0.374275 0.363491 Cs
0.896761 0.875168 0.614169 Cs
0.146327 0.875097 0.864065 Cs
0.396136 0.875236 0.113726 Cs
0.646624 0.876475 0.362661 Cs
0.895949 0.373694 0.614470 Cs
0.146314 0.374862 0.863781 Cs
0.394084 0.376420 0.115633 Cs
0.396425 0.875025 0.614207 Cs
0.646322 0.875101 0.864213 Cs
0.646759 0.374946 0.864672 Cs
0.113748 0.124763 0.146116 Cs
0.363665 0.124452 0.396587 Cs
0.114460 0.624611 0.146205 Cs
0.114045 0.124848 0.646279 Cs
0.363939 0.124889 0.896486 Cs
0.614025 0.124834 0.146163 Cs
0.864165 0.124877 0.396394 Cs
0.113522 0.625242 0.646405 Cs
0.363799 0.625216 0.896761 Cs
0.613698 0.627127 0.144744 Cs
0.863998 0.626262 0.395652 Cs
0.613543 0.124319 0.646208 Cs
0.864318 0.124782 0.897096 Cs
0.863976 0.625211 0.896429 Cs
0.751455 0.750930 0.249245 Pb
-0.000023 0.750354 0.500072 Pb
0.750205 0.249970 0.249648 Pb
-0.000024 0.249648 0.499929 Pb
0.750067 0.750684 0.750190 Pb
0.000087 0.749990 0.999980 Pb
0.249633 0.750220 0.249634 Pb
0.500165 0.749750 0.500279 Pb
0.750828 0.248252 0.750894 Pb
0.000068 0.249966 0.999921 Pb
0.249813 0.750340 0.750257 Pb
0.499719 0.750446 0.999700 Pb
0.249768 0.249416 0.750381 Pb
0.499897 0.249911 0.000276 Pb
0.000340 0.750285 0.249859 Pb
0.249850 0.750009 0.500018 Pb
-0.000003 0.249754 0.249827 Pb
0.000099 0.750232 0.750155 Pb
0.249933 0.749968 0.000034 Pb
0.499387 0.750789 0.249667 Pb
0.750139 0.750992 0.500255 Pb
0.000030 0.249656 0.750128 Pb
0.249961 0.249832 0.999871 Pb
0.749950 0.249433 0.499884 Pb
0.499885 0.750024 0.750166 Pb
0.750184 0.750382 0.999936 Pb
0.499850 0.249136 0.750536 Pb
0.750011 0.249704 0.000071 Pb
0.000027 1.000012 0.249948 Pb
0.249965 0.999656 0.500058 Pb
0.000935 0.499694 0.249880 Pb
0.000048 -0.000015 0.750063 Pb
0.249949 0.999913 0.999955 Pb
0.499830 0.999947 0.249818 Pb
0.750016 0.000204 0.499995 Pb
0.999862 0.500127 0.750104 Pb
0.249863 0.500224 -0.000059 Pb
0.752350 0.500296 0.500278 Pb
0.500010 0.999638 0.750127 Pb
0.749987 0.000049 -0.000010 Pb
0.500328 0.499843 0.750936 Pb
0.750332 0.500226 1.000019 Pb
0.750187 0.000504 0.249893 Pb
0.000010 0.999880 0.499957 Pb
0.752842 0.500336 0.248322 Pb
0.000324 0.499153 0.499477 Pb
0.750053 0.999552 0.750091 Pb
0.000027 0.999936 -0.000008 Pb
0.249866 0.999814 0.249831 Pb
0.499927 0.999899 0.499960 Pb
0.750200 0.500550 0.750225 Pb
0.000077 0.499899 0.999936 Pb
0.249941 0.999845 0.750055 Pb
0.500001 0.000148 -0.000018 Pb
0.250001 0.499946 0.750534 Pb
0.499791 0.499958 -0.000043 Pb
0.984255 0.125032 0.230488 Br
0.233984 0.124789 0.481335 Br
0.985027 0.624832 0.231356 Br
0.232156 0.624858 0.477911 Br
0.984573 0.124962 0.730423 Br
0.234299 0.124992 0.980473 Br
0.484188 0.124719 0.230157 Br
0.733615 0.125534 0.479891 Br
0.984385 0.625039 0.730446 Br
0.233949 0.624942 0.980195 Br
0.485985 0.623555 0.237589 Br
0.484360 0.124564 0.730945 Br
0.734028 0.125113 0.980469 Br
0.734415 0.625135 0.980967 Br
0.230318 0.874692 0.234061 Br
0.480367 0.874258 0.484795 Br
0.232348 0.374722 0.234449 Br
0.230376 0.874806 0.734148 Br
0.480473 0.875034 0.984147 Br
0.732247 0.875856 0.233665 Br
0.980309 0.874606 0.484134 Br
0.232006 0.374942 0.733989 Br
0.479444 0.375455 0.986069 Br
0.730947 0.375927 0.233183 Br
0.978711 0.375030 0.483980 Br
0.729761 0.874836 0.733968 Br
0.980832 0.874877 0.984333 Br
0.980684 0.375055 0.983510 Br
0.769844 0.125897 0.265838 Br
0.019140 0.124968 0.515565 Br
0.770159 0.625787 0.266003 Br
0.016948 0.624020 0.516117 Br
0.770487 0.124219 0.766609 Br
0.019084 0.125036 0.015527 Br
0.269786 0.124582 0.265522 Br
0.518902 0.125572 0.515213 Br
0.768674 0.625107 0.765561 Br
0.019443 0.624809 0.015704 Br
0.269485 0.124787 0.765724 Br
0.519432 0.125247 0.015656 Br
0.268064 0.624856 0.767111 Br
0.518470 0.624787 0.015471 Br
0.015746 0.875018 0.269646 Br
0.266101 0.874326 0.519586 Br
0.016668 0.374855 0.269632 Br
0.015770 0.874961 0.769259 Br
0.265637 0.874888 0.019308 Br
0.514907 0.874803 0.269609 Br
0.766182 0.875052 0.519666 Br
0.015314 0.375134 0.768769 Br
0.265415 0.375124 0.018923 Br
0.761226 0.375885 0.521872 Br
0.515676 0.874299 0.769367 Br
0.765551 0.875139 0.019584 Br
0.516614 0.374762 0.768541 Br
0.765113 0.375188 0.019013 Br
0.873924 0.982225 0.224535 Br
0.123902 0.981924 0.474558 Br
0.876370 0.481552 0.222599 Br
0.121016 0.481918 0.474492 Br
0.873852 0.981899 0.724535 Br
0.123913 0.982086 0.974522 Br
0.373915 0.981971 0.224513 Br
0.623878 0.982138 0.474506 Br
0.873576 0.483497 0.722925 Br
0.123963 0.482012 0.974641 Br
0.377608 0.482357 0.233515 Br
0.373945 0.981968 0.724513 Br
0.623864 0.982074 0.974602 Br
0.623589 0.482009 0.975482 Br
0.974550 0.017919 0.373951 Br
0.224568 0.017822 0.623865 Br
0.973483 0.517726 0.374066 Br
0.224625 0.518207 0.623440 Br
0.974576 0.017871 0.873843 Br
0.224517 0.017932 0.123927 Br
0.474526 0.017867 0.373946 Br
0.724586 0.018071 0.623804 Br
0.974460 0.517939 0.873636 Br
0.227261 0.517846 0.124231 Br
0.474561 0.017910 0.873866 Br
0.724555 0.018078 0.123931 Br
0.475456 0.517305 0.875690 Br
0.725256 0.518906 0.123672 Br
0.025579 0.767825 0.126148 Br
0.275781 0.767772 0.376160 Br
0.025493 0.268037 0.126078 Br
0.025466 0.767930 0.625986 Br
0.275534 0.768027 0.876008 Br
0.524558 0.767656 0.125903 Br
0.774691 0.767706 0.376166 Br
0.025282 0.267908 0.625962 Br
0.275468 0.267979 0.876119 Br
0.525392 0.268257 0.126350 Br
0.775429 0.268493 0.376387 Br
0.525574 0.767802 0.626042 Br
0.775577 0.768106 0.875899 Br
0.775694 0.267414 0.876266 Br
0.126062 0.231952 0.275321 Br
0.375722 0.231843 0.525286 Br
0.126339 0.731969 0.275594 Br
0.126101 0.232069 0.775572 Br
0.376094 0.232169 0.025620 Br
0.626162 0.232038 0.275674 Br
0.875631 0.232204 0.525593 Br
0.126052 0.732105 0.775395 Br
0.376096 0.731841 0.025584 Br
0.875918 0.732036 0.525331 Br
0.626303 0.232461 0.774556 Br
0.876024 0.232079 0.025514 Br
0.626021 0.732108 0.775759 Br
0.876084 0.732131 0.025308 Br
0.874714 0.768259 0.224101 Br
0.124019 0.767896 0.474556 Br
0.873838 0.268176 0.224314 Br
0.123597 0.268165 0.474728 Br
0.873784 0.768006 0.724475 Br
0.123931 0.767919 0.974479 Br
0.373889 0.767853 0.224303 Br
0.623963 0.770383 0.474228 Br
0.874011 0.267317 0.724475 Br
0.123896 0.267973 0.974481 Br
0.373974 0.267575 0.224541 Br
0.373906 0.767821 0.724451 Br
0.623823 0.767840 0.974751 Br
0.623808 0.268051 0.974656 Br
0.974473 0.232051 0.373891 Br
0.224674 0.232252 0.624032 Br
0.974389 0.732328 0.373967 Br
0.224484 0.731710 0.623779 Br
0.974452 0.232038 0.873819 Br
0.224313 0.231934 0.123866 Br
0.474291 0.231830 0.373978 Br
0.725238 0.230591 0.624092 Br
0.974550 0.732028 0.873829 Br
0.224708 0.731843 0.123942 Br
0.474548 0.232133 0.874192 Br
0.724394 0.232073 0.124099 Br
0.474437 0.731859 0.873717 Br
0.725513 0.732341 0.123773 Br
0.126142 0.017995 0.275467 Br
0.376131 0.017810 0.525454 Br
0.127425 0.517513 0.276950 Br
0.126111 0.017959 0.775413 Br
0.376136 0.017908 0.025383 Br
0.626051 0.017978 0.275370 Br
0.875999 0.018004 0.525376 Br
0.126205 0.517657 0.775135 Br
0.376228 0.518134 0.025483 Br
0.869567 0.517038 0.525743 Br
0.626076 0.017995 0.775405 Br
0.876056 0.017903 0.025438 Br
0.626071 0.517718 0.776550 Br
0.876003 0.517942 0.025391 Br
0.025467 0.982039 0.126120 Br
0.275344 0.982041 0.376165 Br
0.025940 0.482052 0.126173 Br
0.025435 0.982040 0.626001 Br
0.275446 0.982005 0.876051 Br
0.525463 0.981961 0.126136 Br
0.775465 0.982165 0.376163 Br
0.024585 0.481769 0.625290 Br
0.275834 0.481858 0.875706 Br
0.522657 0.482746 0.131679 Br
0.774375 0.481179 0.376590 Br
0.525404 0.982143 0.626018 Br
0.775421 0.981823 0.876039 Br
0.775565 0.482739 0.875462 Br
0.384149 0.369209 0.353051 Cs
0.638461 0.366789 0.615562 Cs
0.610410 0.635844 0.380916 Cs
0.351411 0.626029 0.638512 Cs
0.391308 0.371695 0.615397 Cs
0.648015 0.373194 0.362098 Cs
0.614411 0.627509 0.649128 Cs
0.362112 0.627637 0.394211 Cs
0.249677 0.249082 0.249484 Pb
0.499521 0.250307 0.499833 Pb
0.500101 0.249113 0.249613 Pb
0.249572 0.249447 0.500128 Pb
0.505891 0.498432 0.252656 Pb
0.246936 0.500852 0.499569 Pb
0.250667 0.499808 0.250603 Pb
0.495706 0.500583 0.507087 Pb
0.483594 0.624054 0.730338 Br
0.734272 0.624223 0.481218 Br
0.735589 0.374535 0.738670 Br
0.474842 0.376336 0.487193 Br
0.269666 0.624834 0.264784 Br
0.526026 0.623796 0.513059 Br
0.516809 0.373856 0.271081 Br
0.264116 0.375810 0.517750 Br
0.374522 0.482148 0.723929 Br
0.720169 0.515931 0.622451 Br
0.522584 0.266684 0.626172 Br
0.273576 0.265728 0.376151 Br
0.626486 0.737833 0.270091 Br
0.376447 0.728830 0.524790 Br
0.373962 0.266750 0.726195 Br
0.623471 0.270996 0.476495 Br
0.474832 0.732211 0.374055 Br
0.724711 0.732322 0.623772 Br
0.630269 0.523482 0.267918 Br
0.374186 0.523343 0.521694 Br
0.532440 0.481005 0.627477 Br
0.277755 0.482005 0.376752 Br
0.549409 0.497252 0.399997 Br
