Cs4 Pb8 Br20                            
   1.0000000000000000     
     8.4983159791395160    0.0000000000000000    0.0000000000000000
    -0.0000000000000000    8.4983159791395160    0.0000000000000000
     0.0000000000000000    0.0000000000000000   15.4345349164994552
   Cs   Pb   Br
     4     8    20
Direct
  0.5000000000000000  0.5000000000000000  0.2500000000000000
  0.0000000000000000  0.0000000000000000  0.2500000000000000
  0.0000000000000000  0.0000000000000000  0.7500000000000000
  0.5000000000000000  0.5000000000000000  0.7500000000000000
  0.8313295401453900  0.6686704598546100  0.0000000000000000
  0.1686704598546100  0.3313295401453900  0.0000000000000000
  0.8313295401453900  0.3313295401453900  0.5000000000000000
  0.6686704598546100  0.1686704598546100  0.0000000000000000
  0.3313295401453900  0.1686704598546100  0.5000000000000000
  0.6686704598546100  0.8313295401453900  0.5000000000000000
  0.3313295401453900  0.8313295401453900  0.0000000000000000
  0.1686704598546100  0.6686704598546100  0.5000000000000000
  0.5000000000000000  0.5000000000000000  0.0000000000000000
  0.0000000000000000  0.0000000000000000  0.0000000000000000
  0.1539964473762794  0.3460025526237231  0.3722806174254458
  0.3460025526237231  0.1539964473762794  0.1277183825745496
  0.8460025526237231  0.6539974473762769  0.3722806174254458
  0.6539974473762769  0.8460025526237231  0.1277183825745496
  0.6539974473762769  0.1539964473762794  0.3722806174254458
  0.8460025526237231  0.3460025526237231  0.1277183825745496
  0.3460025526237231  0.8460025526237231  0.3722806174254458
  0.1539964473762794  0.6539974473762769  0.1277183825745496
  0.0000000000000000  0.0000000000000000  0.5000000000000000
  0.5000000000000000  0.5000000000000000  0.5000000000000000
  0.6539974473762769  0.8460025526237231  0.8722816174254504
  0.8460025526237231  0.6539974473762769  0.6277183825745496
  0.3460025526237231  0.1539964473762794  0.8722816174254504
  0.1539964473762794  0.3460025526237231  0.6277183825745496
  0.1539964473762794  0.6539974473762769  0.8722816174254504
  0.3460025526237231  0.8460025526237231  0.6277183825745496
  0.8460025526237231  0.3460025526237231  0.8722816174254504
  0.6539974473762769  0.1539964473762794  0.6277183825745496

  0.00000000E+00  0.00000000E+00  0.00000000E+00
  0.00000000E+00  0.00000000E+00  0.00000000E+00
  0.00000000E+00  0.00000000E+00  0.00000000E+00
  0.00000000E+00  0.00000000E+00  0.00000000E+00
  0.00000000E+00  0.00000000E+00  0.00000000E+00
  0.00000000E+00  0.00000000E+00  0.00000000E+00
  0.00000000E+00  0.00000000E+00  0.00000000E+00
  0.00000000E+00  0.00000000E+00  0.00000000E+00
  0.00000000E+00  0.00000000E+00  0.00000000E+00
  0.00000000E+00  0.00000000E+00  0.00000000E+00
  0.00000000E+00  0.00000000E+00  0.00000000E+00
  0.00000000E+00  0.00000000E+00  0.00000000E+00
  0.00000000E+00  0.00000000E+00  0.00000000E+00
  0.00000000E+00  0.00000000E+00  0.00000000E+00
  0.00000000E+00  0.00000000E+00  0.00000000E+00
  0.00000000E+00  0.00000000E+00  0.00000000E+00
  0.00000000E+00  0.00000000E+00  0.00000000E+00
  0.00000000E+00  0.00000000E+00  0.00000000E+00
  0.00000000E+00  0.00000000E+00  0.00000000E+00
  0.00000000E+00  0.00000000E+00  0.00000000E+00
  0.00000000E+00  0.00000000E+00  0.00000000E+00
  0.00000000E+00  0.00000000E+00  0.00000000E+00
  0.00000000E+00  0.00000000E+00  0.00000000E+00
  0.00000000E+00  0.00000000E+00  0.00000000E+00
  0.00000000E+00  0.00000000E+00  0.00000000E+00
  0.00000000E+00  0.00000000E+00  0.00000000E+00
  0.00000000E+00  0.00000000E+00  0.00000000E+00
  0.00000000E+00  0.00000000E+00  0.00000000E+00
  0.00000000E+00  0.00000000E+00  0.00000000E+00
  0.00000000E+00  0.00000000E+00  0.00000000E+00
  0.00000000E+00  0.00000000E+00  0.00000000E+00
  0.00000000E+00  0.00000000E+00  0.00000000E+00
