Cs4 Pb8 Br20                            
   1.0000000000000000     
     8.4983159791395160    0.0000000000000000    0.0000000000000000
    -0.0000000000000000    8.4983159791395160    0.0000000000000000
     0.0000000000000000    0.0000000000000000   15.4345349164994552
   Cs   Pb   Br
     4     8    20
Direct
  0.5000000000000000  0.5000000000000000  0.2500000000000000
 -0.0000000000000000  0.0000000000000000  0.2500000000000000
 -0.0000000000000000  0.0000000000000000  0.7500000000000000
  0.5000000000000000  0.5000000000000000  0.7500000000000000
  0.8313295401453933  0.6686704598546067  0.0000000000000000
  0.1686704598546067  0.3313295401453933  0.0000000000000000
  0.8313295401453933  0.3313295401453933  0.5000000000000000
  0.6686704598546067  0.1686704598546067  0.0000000000000000
  0.3313295401453933  0.1686704598546067  0.5000000000000000
  0.6686704598546067  0.8313295401453933  0.5000000000000000
  0.3313295401453933  0.8313295401453933  0.0000000000000000
  0.1686704598546067  0.6686704598546067  0.5000000000000000
  0.5000000000000000  0.5000000000000000  0.0000000000000000
 -0.0000000000000000  0.0000000000000000  0.0000000000000000
  0.1539964473762827  0.3460025526237198  0.3722806174254436
  0.3460025526237198  0.1539964473762827  0.1277183825745518
  0.8460025526237198  0.6539974473762802  0.3722806174254436
  0.6539974473762802  0.8460025526237198  0.1277183825745518
  0.6539974473762802  0.1539964473762827  0.3722806174254436
  0.8460025526237198  0.3460025526237198  0.1277183825745518
  0.3460025526237198  0.8460025526237198  0.3722806174254436
  0.1539964473762827  0.6539974473762802  0.1277183825745518
  0.0000000000000000  0.0000000000000000  0.5000000000000000
  0.5000000000000000  0.5000000000000000  0.5000000000000000
  0.6539974473762802  0.8460025526237198  0.8722816174254482
  0.8460025526237198  0.6539974473762802  0.6277183825745518
  0.3460025526237198  0.1539964473762827  0.8722816174254482
  0.1539964473762827  0.3460025526237198  0.6277183825745518
  0.1539964473762827  0.6539974473762802  0.8722816174254482
  0.3460025526237198  0.8460025526237198  0.6277183825745518
  0.8460025526237198  0.3460025526237198  0.8722816174254482
  0.6539974473762802  0.1539964473762827  0.6277183825745518

  0.00000000E+00  0.00000000E+00  0.00000000E+00
  0.00000000E+00  0.00000000E+00  0.00000000E+00
  0.00000000E+00  0.00000000E+00  0.00000000E+00
  0.00000000E+00  0.00000000E+00  0.00000000E+00
  0.00000000E+00  0.00000000E+00  0.00000000E+00
  0.00000000E+00  0.00000000E+00  0.00000000E+00
  0.00000000E+00  0.00000000E+00  0.00000000E+00
  0.00000000E+00  0.00000000E+00  0.00000000E+00
  0.00000000E+00  0.00000000E+00  0.00000000E+00
  0.00000000E+00  0.00000000E+00  0.00000000E+00
  0.00000000E+00  0.00000000E+00  0.00000000E+00
  0.00000000E+00  0.00000000E+00  0.00000000E+00
  0.00000000E+00  0.00000000E+00  0.00000000E+00
  0.00000000E+00  0.00000000E+00  0.00000000E+00
  0.00000000E+00  0.00000000E+00  0.00000000E+00
  0.00000000E+00  0.00000000E+00  0.00000000E+00
  0.00000000E+00  0.00000000E+00  0.00000000E+00
  0.00000000E+00  0.00000000E+00  0.00000000E+00
  0.00000000E+00  0.00000000E+00  0.00000000E+00
  0.00000000E+00  0.00000000E+00  0.00000000E+00
  0.00000000E+00  0.00000000E+00  0.00000000E+00
  0.00000000E+00  0.00000000E+00  0.00000000E+00
  0.00000000E+00  0.00000000E+00  0.00000000E+00
  0.00000000E+00  0.00000000E+00  0.00000000E+00
  0.00000000E+00  0.00000000E+00  0.00000000E+00
  0.00000000E+00  0.00000000E+00  0.00000000E+00
  0.00000000E+00  0.00000000E+00  0.00000000E+00
  0.00000000E+00  0.00000000E+00  0.00000000E+00
  0.00000000E+00  0.00000000E+00  0.00000000E+00
  0.00000000E+00  0.00000000E+00  0.00000000E+00
  0.00000000E+00  0.00000000E+00  0.00000000E+00
  0.00000000E+00  0.00000000E+00  0.00000000E+00
