Cs4 Pb4 Br12                            
   1.0000000000000000     
     8.4909379058717995    0.0000000000000000   -0.0000000000000059
     0.0000000000000000   11.6125401606385115    0.0000000000000000
    -0.0000000000000051    0.0000000000000000    7.3277431343528674
   Cs   Pb   Br
     4     4    12
Direct
  0.0963820050965367  0.2500000000000000  0.4537365977047116
  0.4036179949034633  0.7500000000000000  0.9537365977047116
  0.5963820050965367  0.2500000000000000  0.0462634022952884
  0.9036179949034633  0.7500000000000000  0.5462634022952884
  0.0000000000000000  0.0000000000000000  0.0000000000000000
  0.5000000000000000  0.0000000000000000  0.5000000000000000
  0.5000000000000000  0.5000000000000000  0.5000000000000000
  0.0000000000000000  0.5000000000000000  0.0000000000000000
  0.4986749836210720  0.7500000000000000  0.4262754390556864
  0.0013250163789280  0.2500000000000000  0.9262754390556864
  0.9986749836210720  0.7500000000000000  0.0737245609443136
  0.5013250163789280  0.2500000000000000  0.5737245609443136
  0.3158840039358424  0.4614121403123264  0.1620442378991811
  0.1841159960641576  0.5385878596876736  0.6620442378991811
  0.8158840039358424  0.0385878596876736  0.3379557621008189
  0.6841159960641576  0.9614121403123264  0.8379557621008189
  0.3158840039358424  0.0385878596876736  0.1620442378991811
  0.1841159960641576  0.9614121403123264  0.6620442378991811
  0.6841159960641576  0.5385878596876736  0.8379557621008189
  0.8158840039358424  0.4614121403123264  0.3379557621008189

  0.00000000E+00  0.00000000E+00  0.00000000E+00
  0.00000000E+00  0.00000000E+00  0.00000000E+00
  0.00000000E+00  0.00000000E+00  0.00000000E+00
  0.00000000E+00  0.00000000E+00  0.00000000E+00
  0.00000000E+00  0.00000000E+00  0.00000000E+00
  0.00000000E+00  0.00000000E+00  0.00000000E+00
  0.00000000E+00  0.00000000E+00  0.00000000E+00
  0.00000000E+00  0.00000000E+00  0.00000000E+00
  0.00000000E+00  0.00000000E+00  0.00000000E+00
  0.00000000E+00  0.00000000E+00  0.00000000E+00
  0.00000000E+00  0.00000000E+00  0.00000000E+00
  0.00000000E+00  0.00000000E+00  0.00000000E+00
  0.00000000E+00  0.00000000E+00  0.00000000E+00
  0.00000000E+00  0.00000000E+00  0.00000000E+00
  0.00000000E+00  0.00000000E+00  0.00000000E+00
  0.00000000E+00  0.00000000E+00  0.00000000E+00
  0.00000000E+00  0.00000000E+00  0.00000000E+00
  0.00000000E+00  0.00000000E+00  0.00000000E+00
  0.00000000E+00  0.00000000E+00  0.00000000E+00
  0.00000000E+00  0.00000000E+00  0.00000000E+00
