Cs4 Pb4 Br12                            
   1.0000000000000000     
     8.4909379058717995    0.0000000000000000   -0.0000000000000059
     0.0000000000000000   11.6125401606385115    0.0000000000000000
    -0.0000000000000051    0.0000000000000000    7.3277431343528674
   Cs   Pb   Br
     4     4    12
Direct
  0.0963820050965401  0.2500000000000000  0.4537365977047143
  0.4036179949034598  0.7500000000000000  0.9537365977047143
  0.5963820050965400  0.2500000000000000  0.0462634022952857
  0.9036179949034600  0.7500000000000000  0.5462634022952857
 -0.0000000000000000  0.0000000000000000 -0.0000000000000000
  0.5000000000000000  0.0000000000000000  0.5000000000000000
  0.5000000000000000  0.5000000000000000  0.5000000000000000
 -0.0000000000000000  0.5000000000000000 -0.0000000000000000
  0.4986749836210736  0.7500000000000000  0.4262754390556886
  0.0013250163789264  0.2500000000000000  0.9262754390556890
  0.9986749836210734  0.7500000000000000  0.0737245609443113
  0.5013250163789266  0.2500000000000000  0.5737245609443110
  0.3158840039358428  0.4614121403123298  0.1620442378991829
  0.1841159960641573  0.5385878596876702  0.6620442378991830
  0.8158840039358427  0.0385878596876701  0.3379557621008173
  0.6841159960641573  0.9614121403123298  0.8379557621008170
  0.3158840039358428  0.0385878596876701  0.1620442378991829
  0.1841159960641573  0.9614121403123298  0.6620442378991830
  0.6841159960641573  0.5385878596876702  0.8379557621008170
  0.8158840039358427  0.4614121403123298  0.3379557621008173

  0.00000000E+00  0.00000000E+00  0.00000000E+00
  0.00000000E+00  0.00000000E+00  0.00000000E+00
  0.00000000E+00  0.00000000E+00  0.00000000E+00
  0.00000000E+00  0.00000000E+00  0.00000000E+00
  0.00000000E+00  0.00000000E+00  0.00000000E+00
  0.00000000E+00  0.00000000E+00  0.00000000E+00
  0.00000000E+00  0.00000000E+00  0.00000000E+00
  0.00000000E+00  0.00000000E+00  0.00000000E+00
  0.00000000E+00  0.00000000E+00  0.00000000E+00
  0.00000000E+00  0.00000000E+00  0.00000000E+00
  0.00000000E+00  0.00000000E+00  0.00000000E+00
  0.00000000E+00  0.00000000E+00  0.00000000E+00
  0.00000000E+00  0.00000000E+00  0.00000000E+00
  0.00000000E+00  0.00000000E+00  0.00000000E+00
  0.00000000E+00  0.00000000E+00  0.00000000E+00
  0.00000000E+00  0.00000000E+00  0.00000000E+00
  0.00000000E+00  0.00000000E+00  0.00000000E+00
  0.00000000E+00  0.00000000E+00  0.00000000E+00
  0.00000000E+00  0.00000000E+00  0.00000000E+00
  0.00000000E+00  0.00000000E+00  0.00000000E+00
