Cs4 Pb4 Br12                            
   1.0000000000000000     
     8.7568183017938299    0.0000000000000000    0.0000000000000000
     0.0000000000000000   11.4651035120081488    0.0000000000000000
     0.0000000000000000    0.0000000000000000    8.4010997758586825
   Cs   Pb   Br
     4     4    12
Direct
  0.0554620024114172  0.2500000000000000  0.4823581858885291
  0.4445379975885828  0.7500000000000000  0.9823581858885291
  0.5554620024114172  0.2500000000000000  0.0176418141114709
  0.9445379975885828  0.7500000000000000  0.5176418141114709
  0.0000000000000000  0.0000000000000000  0.0000000000000000
  0.5000000000000000  0.0000000000000000  0.5000000000000000
  0.5000000000000000  0.5000000000000000  0.5000000000000000
  0.0000000000000000  0.5000000000000000  0.0000000000000000
  0.5246758325746796  0.7500000000000000  0.4147152620802714
  0.9753241674253204  0.2500000000000000  0.9147152620802714
  0.0246758325746796  0.7500000000000000  0.0852847379197286
  0.4753241674253204  0.2500000000000000  0.5852847379197286
  0.2817716898472113  0.4614119243002506  0.2159756193609894
  0.2182283101527887  0.5385880756997494  0.7159756193609894
  0.7817716898472113  0.0385880756997494  0.2840243806390106
  0.7182283101527887  0.9614119243002506  0.7840243806390106
  0.2817716898472113  0.0385880756997494  0.2159756193609894
  0.2182283101527887  0.9614119243002506  0.7159756193609894
  0.7182283101527887  0.5385880756997494  0.7840243806390106
  0.7817716898472113  0.4614119243002506  0.2840243806390106

  0.00000000E+00  0.00000000E+00  0.00000000E+00
  0.00000000E+00  0.00000000E+00  0.00000000E+00
  0.00000000E+00  0.00000000E+00  0.00000000E+00
  0.00000000E+00  0.00000000E+00  0.00000000E+00
  0.00000000E+00  0.00000000E+00  0.00000000E+00
  0.00000000E+00  0.00000000E+00  0.00000000E+00
  0.00000000E+00  0.00000000E+00  0.00000000E+00
  0.00000000E+00  0.00000000E+00  0.00000000E+00
  0.00000000E+00  0.00000000E+00  0.00000000E+00
  0.00000000E+00  0.00000000E+00  0.00000000E+00
  0.00000000E+00  0.00000000E+00  0.00000000E+00
  0.00000000E+00  0.00000000E+00  0.00000000E+00
  0.00000000E+00  0.00000000E+00  0.00000000E+00
  0.00000000E+00  0.00000000E+00  0.00000000E+00
  0.00000000E+00  0.00000000E+00  0.00000000E+00
  0.00000000E+00  0.00000000E+00  0.00000000E+00
  0.00000000E+00  0.00000000E+00  0.00000000E+00
  0.00000000E+00  0.00000000E+00  0.00000000E+00
  0.00000000E+00  0.00000000E+00  0.00000000E+00
  0.00000000E+00  0.00000000E+00  0.00000000E+00
