Cs64 Pb64 Br191
1.0
16.840035 0.000000 16.155961
0.000000 23.527616 0.000000
-16.840035 0.000000 16.155961
Cs Pb Br Cs Pb Br
56 56 168 8 8 23
direct
0.883396 0.871278 0.356468 Cs
0.135337 0.872821 0.603526 Cs
0.885521 0.375332 0.353256 Cs
0.136223 0.375070 0.604145 Cs
0.886145 0.876294 0.853541 Cs
0.136190 0.875194 0.103529 Cs
0.383844 0.875115 0.351823 Cs
0.639548 0.882148 0.619762 Cs
0.886726 0.374807 0.853927 Cs
0.136043 0.374874 0.103526 Cs
0.386466 0.875210 0.853328 Cs
0.636224 0.874908 0.103444 Cs
0.386013 0.374901 0.852971 Cs
0.636330 0.375159 0.104267 Cs
0.103310 0.124713 0.386246 Cs
0.353406 0.124735 0.635897 Cs
0.103657 0.625307 0.388824 Cs
0.103578 0.124984 0.886486 Cs
0.352618 0.124937 0.135691 Cs
0.605074 0.124895 0.386214 Cs
0.854132 0.124969 0.635599 Cs
0.103607 0.625059 0.885692 Cs
0.355307 0.624988 0.135883 Cs
0.860384 0.628385 0.638602 Cs
0.603780 0.124717 0.885723 Cs
0.856650 0.125136 0.136090 Cs
0.603524 0.624896 0.888815 Cs
0.852878 0.624812 0.138274 Cs
0.895724 0.874326 0.114589 Cs
0.145871 0.872202 0.366534 Cs
0.896568 0.374912 0.114069 Cs
0.146358 0.375190 0.364320 Cs
0.896081 0.873914 0.614464 Cs
0.146806 0.875187 0.863951 Cs
0.396348 0.875026 0.113955 Cs
0.647803 0.883861 0.354675 Cs
0.896574 0.375289 0.614369 Cs
0.146786 0.374859 0.864103 Cs
0.395395 0.374075 0.112823 Cs
0.394893 0.873551 0.615753 Cs
0.646366 0.875613 0.866065 Cs
0.646031 0.375009 0.864264 Cs
0.113954 0.124879 0.146362 Cs
0.363728 0.124679 0.396354 Cs
0.113932 0.625007 0.146712 Cs
0.113903 0.124784 0.646003 Cs
0.363989 0.125007 0.896787 Cs
0.613479 0.125125 0.145167 Cs
0.865611 0.124622 0.399386 Cs
0.114564 0.625340 0.646422 Cs
0.363752 0.625058 0.896846 Cs
0.614564 0.624733 0.142904 Cs
0.864167 0.625575 0.391790 Cs
0.614106 0.125136 0.646014 Cs
0.864629 0.125270 0.897621 Cs
0.864159 0.624849 0.896729 Cs
0.750054 0.750790 0.250103 Pb
0.993627 0.747695 0.500531 Pb
0.750861 0.248120 0.249680 Pb
0.000117 0.250022 0.500099 Pb
0.750751 0.750571 0.754012 Pb
0.000035 0.749982 0.000092 Pb
0.249303 0.750040 0.249571 Pb
0.509086 0.753656 0.500271 Pb
0.750305 0.250594 0.750368 Pb
0.000150 0.250120 0.000088 Pb
0.250145 0.750066 0.750574 Pb
0.499783 0.750329 0.999975 Pb
0.249982 0.249568 0.750178 Pb
0.499992 0.250079 -0.000019 Pb
0.000730 0.750025 0.249976 Pb
0.251585 0.749424 0.500211 Pb
0.000238 0.249827 0.250189 Pb
0.000289 0.750620 0.750760 Pb
0.249864 0.750201 0.999975 Pb
0.499595 0.750553 0.249591 Pb
0.728323 0.749329 0.501065 Pb
0.000115 0.249677 0.750110 Pb
0.249949 0.249976 -0.000064 Pb
0.749868 0.248113 0.499911 Pb
0.500239 0.750018 0.750490 Pb
0.750540 0.749783 0.000863 Pb
0.500028 0.250016 0.750288 Pb
0.750108 0.249926 0.000096 Pb
0.000437 -0.000623 0.250511 Pb
0.249922 0.999556 0.500105 Pb
0.000834 0.499862 0.250093 Pb
0.000302 0.000273 0.750044 Pb
0.249991 -0.000106 0.999988 Pb
0.499622 0.000660 0.249524 Pb
0.750465 0.995598 0.500578 Pb
0.000370 0.499352 0.750450 Pb
0.249775 0.500200 0.999938 Pb
0.747029 0.500206 0.500530 Pb
0.499722 0.000565 0.750274 Pb
0.750372 0.000584 0.000294 Pb
0.500228 0.500806 0.750230 Pb
0.750463 0.499707 -0.000019 Pb
0.752193 0.001145 0.249304 Pb
1.000015 0.999063 0.500115 Pb
0.750916 0.497821 0.248529 Pb
0.998538 0.499950 0.500062 Pb
0.751947 0.002427 0.751175 Pb
0.000094 -0.000300 0.000109 Pb
0.249633 -0.000046 0.250074 Pb
0.499813 -0.001910 0.499469 Pb
0.750439 0.499709 0.750592 Pb
0.000138 0.500260 0.000109 Pb
0.249893 0.000039 0.750082 Pb
0.499902 0.000161 0.000131 Pb
0.250022 0.499759 0.750345 Pb
0.499550 0.499459 0.999694 Pb
0.985532 0.124616 0.231945 Br
0.234590 0.124687 0.481034 Br
0.983868 0.624659 0.231492 Br
0.235513 0.624255 0.481121 Br
0.984413 0.125045 0.730142 Br
0.234443 0.124986 0.980995 Br
0.483126 0.124707 0.229668 Br
0.736003 0.126782 0.483844 Br
0.987374 0.624920 0.733666 Br
0.234249 0.625195 0.980581 Br
0.488689 0.623884 0.231325 Br
0.484583 0.125528 0.730130 Br
0.733946 0.125282 0.980338 Br
0.734333 0.624843 0.981372 Br
0.229592 0.874761 0.235645 Br
0.472917 0.869547 0.485030 Br
0.230432 0.374796 0.234764 Br
0.231288 0.874748 0.733843 Br
0.480792 0.875000 0.984150 Br
0.736207 0.875409 0.230230 Br
0.980829 0.873629 0.484858 Br
0.231511 0.374749 0.734320 Br
0.480059 0.374932 0.983365 Br
0.734939 0.373255 0.232907 Br
0.979234 0.374773 0.484108 Br
0.738226 0.876236 0.742959 Br
0.979926 0.874904 0.984874 Br
0.980791 0.375167 0.984739 Br
0.774156 0.124404 0.267198 Br
0.017490 0.124498 0.515718 Br
0.760118 0.624053 0.267229 Br
0.018156 0.623889 0.517861 Br
0.771602 0.126549 0.766409 Br
0.018739 0.124993 0.016025 Br
0.269525 0.124786 0.265980 Br
0.516822 0.124399 0.514514 Br
0.769434 0.625214 0.764233 Br
0.020176 0.625083 0.015754 Br
0.270238 0.124749 0.765891 Br
0.519082 0.125105 0.015028 Br
0.268463 0.624788 0.766846 Br
0.517235 0.624801 0.016262 Br
0.014399 0.874375 0.272550 Br
0.265937 0.874190 0.519650 Br
0.015857 0.374864 0.270304 Br
0.016090 0.875261 0.769780 Br
0.265926 0.875037 0.019767 Br
0.513602 0.874939 0.269149 Br
0.766889 0.872957 0.520653 Br
0.016189 0.374690 0.769643 Br
0.265197 0.375116 0.018904 Br
0.765095 0.382648 0.517571 Br
0.517186 0.875474 0.767684 Br
0.765426 0.875164 0.018797 Br
0.516018 0.375829 0.767413 Br
0.765788 0.375007 0.019898 Br
0.874465 0.982035 0.224485 Br
0.123942 0.981882 0.474724 Br
0.875098 0.482422 0.224717 Br
0.123955 0.482625 0.476106 Br
0.874481 0.982620 0.723884 Br
0.123946 0.981977 0.974563 Br
0.374034 0.982023 0.224493 Br
0.623476 0.985880 0.473245 Br
0.873847 0.482434 0.724569 Br
0.123844 0.482051 0.974454 Br
0.373329 0.481059 0.223764 Br
0.374243 0.982020 0.724672 Br
0.623901 0.982564 0.975243 Br
0.623823 0.482079 0.975383 Br
0.974442 0.017453 0.374184 Br
0.224712 0.017833 0.623941 Br
0.974465 0.518286 0.374217 Br
0.224803 0.517907 0.623862 Br
0.974610 0.018022 0.873951 Br
0.224512 0.017829 0.124011 Br
0.474509 0.017420 0.374090 Br
0.725251 0.018183 0.624248 Br
0.974479 0.517712 0.874085 Br
0.224499 0.517884 0.123992 Br
0.474707 0.017927 0.873742 Br
0.725787 0.019598 0.124440 Br
0.474607 0.518217 0.873386 Br
0.725249 0.517799 0.123567 Br
0.025771 0.768191 0.126580 Br
0.275509 0.767462 0.376144 Br
0.025455 0.267873 0.126252 Br
0.021721 0.766997 0.626193 Br
0.275850 0.768248 0.876254 Br
0.524906 0.767975 0.126310 Br
0.766578 0.764810 0.376748 Br
0.025516 0.268130 0.626046 Br
0.275653 0.267876 0.876092 Br
0.525400 0.268277 0.126354 Br
0.775683 0.267390 0.376483 Br
0.529884 0.768123 0.626448 Br
0.778534 0.767335 0.877265 Br
0.775456 0.268329 0.876116 Br
0.126306 0.232005 0.275802 Br
0.376594 0.232621 0.525571 Br
0.126390 0.730760 0.276709 Br
0.126194 0.231860 0.775507 Br
0.376188 0.232065 0.025526 Br
0.626295 0.231299 0.274938 Br
0.875617 0.233895 0.526523 Br
0.126609 0.732538 0.775044 Br
0.376111 0.732277 0.025537 Br
0.870710 0.728649 0.517971 Br
0.626189 0.231936 0.775298 Br
0.876068 0.232247 0.025445 Br
0.626586 0.734055 0.780207 Br
0.876185 0.731013 0.026902 Br
0.874414 0.765710 0.226370 Br
0.126465 0.764150 0.478847 Br
0.874186 0.267769 0.224545 Br
0.123971 0.268038 0.474747 Br
0.874110 0.767020 0.726198 Br
0.123848 0.768153 0.974495 Br
0.373635 0.767617 0.225256 Br
0.621986 0.809769 0.482668 Br
0.873884 0.268318 0.724470 Br
0.123942 0.267887 0.974563 Br
0.374086 0.267985 0.224697 Br
0.374901 0.767497 0.725357 Br
0.623954 0.767500 0.975224 Br
0.623884 0.268039 0.974805 Br
0.974508 0.232200 0.374130 Br
0.224625 0.231957 0.623876 Br
0.974885 0.731061 0.374027 Br
0.226614 0.731633 0.624243 Br
0.974673 0.232117 0.873895 Br
0.224538 0.232094 0.124023 Br
0.474537 0.232105 0.374499 Br
0.724411 0.232736 0.623785 Br
0.974522 0.732111 0.874551 Br
0.224521 0.732115 0.123950 Br
0.474707 0.232162 0.873746 Br
0.724832 0.231465 0.124111 Br
0.474548 0.731950 0.873675 Br
0.724785 0.731817 0.123612 Br
0.126306 0.017717 0.275829 Br
0.376462 0.017539 0.525060 Br
0.126613 0.518908 0.276933 Br
0.126399 0.018162 0.775653 Br
0.376173 0.017897 0.025577 Br
0.626425 0.020755 0.272734 Br
0.875679 0.015954 0.526361 Br
0.126296 0.517465 0.775371 Br
0.376030 0.517819 0.025311 Br
0.873097 0.523165 0.522817 Br
0.626623 0.017309 0.773826 Br
0.876126 0.017841 0.025701 Br
0.626356 0.518118 0.777901 Br
0.876039 0.518439 0.026054 Br
0.025356 0.981797 0.126306 Br
0.275301 0.982072 0.376240 Br
0.025797 0.482094 0.126421 Br
0.025859 0.981563 0.626202 Br
0.275693 0.981918 0.876146 Br
0.525471 0.981878 0.126138 Br
0.776166 0.982328 0.376499 Br
0.024383 0.481878 0.626041 Br
0.275708 0.481980 0.876078 Br
0.522791 0.480048 0.126016 Br
0.773492 0.484872 0.376298 Br
0.523570 0.983737 0.625317 Br
0.776506 0.984673 0.876707 Br
0.775954 0.481949 0.875730 Br
0.384374 0.374670 0.353758 Cs
0.636140 0.374652 0.604726 Cs
0.603422 0.618736 0.362860 Cs
0.350287 0.625326 0.636533 Cs
0.396105 0.375127 0.615466 Cs
0.648127 0.370863 0.360563 Cs
0.621446 0.628270 0.656300 Cs
0.361239 0.626992 0.392599 Cs
0.249808 0.249580 0.249957 Pb
0.500046 0.247463 0.500280 Pb
0.499644 0.249300 0.249671 Pb
0.249725 0.249730 0.500059 Pb
0.497667 0.497173 0.248740 Pb
0.250283 0.499785 0.500143 Pb
0.249164 0.499813 0.249757 Pb
0.501435 0.497254 0.499534 Pb
0.484395 0.625736 0.727658 Br
0.730317 0.375638 0.734245 Br
0.480860 0.380356 0.485848 Br
0.269277 0.624772 0.263539 Br
0.513948 0.373752 0.272034 Br
0.266710 0.374788 0.519829 Br
0.374393 0.482595 0.724479 Br
0.623508 0.474905 0.471660 Br
0.475299 0.521074 0.374882 Br
0.725419 0.519045 0.623423 Br
0.525450 0.267657 0.625480 Br
0.275335 0.267728 0.376289 Br
0.625566 0.738616 0.271120 Br
0.384190 0.726741 0.522273 Br
0.374115 0.267772 0.724595 Br
0.623571 0.267406 0.474650 Br
0.483154 0.726476 0.376287 Br
0.725386 0.739723 0.626219 Br
0.625881 0.505943 0.266852 Br
0.378906 0.520585 0.524180 Br
0.528565 0.485788 0.624964 Br
0.275505 0.482383 0.376247 Br
0.647736 0.649498 0.503392 Br
