Cs8 Pb8 Br23                            
   1.0000000000000000     
     8.4564889999999995    0.0000000000000000    8.0403009999999995
     0.0000000000000000   11.7298469999999995    0.0000000000000000
    -8.4564889999999995    0.0000000000000000    8.0403009999999995
   Cs   Pb   Br
     8     8    23
Direct
  0.2712140000000005  0.2482600000000019  0.2072140000000005
  0.7753340000000009  0.2468440000000029  0.7062239999999989
  0.7141700000000029  0.7518340000000023  0.2645189999999999
  0.2116029999999967  0.7472780000000014  0.7737929999999977
  0.2591589999999968  0.2373210000000014  0.7320190000000011
  0.8010519999999985  0.2496679999999998  0.2279270000000011
  0.7497169999999969  0.7635530000000017  0.8085209999999989
  0.2161219999999986  0.7541650000000004  0.2802870000000013
  0.0030519999999967  0.0028130000000033  0.0008029999999977
  0.4996679999999998  0.9988409999999988  0.5056900000000013
  0.5036640000000006  0.0031090000000020  0.0054149999999993
  0.9994769999999988  0.9974080000000001  0.4966799999999978
  0.4991759999999985  0.5045870000000008  0.0032730000000001
  0.9978729999999985  0.5003889999999984  0.4970190000000017
  0.0007120000000000  0.4994349999999983  0.9973529999999968
  0.4944559999999996  0.4905019999999993  0.4902769999999990
  0.4778489999999991  0.7524530000000027  0.9643840000000026
  0.9655660000000026  0.7489369999999980  0.4607549999999989
  0.9692519999999973  0.2513030000000001  0.9643620000000013
  0.4563789999999983  0.2422880000000021  0.4876500000000021
  0.0271210000000011  0.7511209999999977  0.0218080000000000
  0.5316440000000000  0.2557040000000015  0.0406699999999987
  0.0218640000000008  0.2490579999999980  0.5219299999999976
  0.2510090000000034  0.4667439999999985  0.9457510000000013
  0.7399410000000017  0.4651890000000023  0.4467830000000035
  0.4488539999999972  0.5442990000000023  0.2443039999999996
  0.9459879999999998  0.5297709999999967  0.7439449999999965
  0.5540790000000015  0.0317799999999977  0.7578079999999972
  0.0545809999999989  0.0346329999999995  0.2501329999999982
  0.7552390000000031  0.9736660000000015  0.0559439999999967
  0.2545950000000019  0.9563309999999987  0.5479419999999990
  0.2509689999999978  0.0288359999999983  0.9569660000000013
  0.7464330000000032  0.0309870000000032  0.4504599999999996
  0.4528990000000022  0.9590570000000014  0.2563699999999969
  0.9603529999999978  0.9779330000000002  0.7449209999999979
  0.7520949999999971  0.5325149999999965  0.0457460000000012
  0.2496300000000033  0.5310199999999980  0.5484360000000024
  0.0530139999999975  0.4677659999999975  0.2486930000000029
  0.5389130000000009  0.6199239999999975  0.6523180000000011

  0.00000000E+00  0.00000000E+00  0.00000000E+00
  0.00000000E+00  0.00000000E+00  0.00000000E+00
  0.00000000E+00  0.00000000E+00  0.00000000E+00
  0.00000000E+00  0.00000000E+00  0.00000000E+00
  0.00000000E+00  0.00000000E+00  0.00000000E+00
  0.00000000E+00  0.00000000E+00  0.00000000E+00
  0.00000000E+00  0.00000000E+00  0.00000000E+00
  0.00000000E+00  0.00000000E+00  0.00000000E+00
  0.00000000E+00  0.00000000E+00  0.00000000E+00
  0.00000000E+00  0.00000000E+00  0.00000000E+00
  0.00000000E+00  0.00000000E+00  0.00000000E+00
  0.00000000E+00  0.00000000E+00  0.00000000E+00
  0.00000000E+00  0.00000000E+00  0.00000000E+00
  0.00000000E+00  0.00000000E+00  0.00000000E+00
  0.00000000E+00  0.00000000E+00  0.00000000E+00
  0.00000000E+00  0.00000000E+00  0.00000000E+00
  0.00000000E+00  0.00000000E+00  0.00000000E+00
  0.00000000E+00  0.00000000E+00  0.00000000E+00
  0.00000000E+00  0.00000000E+00  0.00000000E+00
  0.00000000E+00  0.00000000E+00  0.00000000E+00
  0.00000000E+00  0.00000000E+00  0.00000000E+00
  0.00000000E+00  0.00000000E+00  0.00000000E+00
  0.00000000E+00  0.00000000E+00  0.00000000E+00
  0.00000000E+00  0.00000000E+00  0.00000000E+00
  0.00000000E+00  0.00000000E+00  0.00000000E+00
  0.00000000E+00  0.00000000E+00  0.00000000E+00
  0.00000000E+00  0.00000000E+00  0.00000000E+00
  0.00000000E+00  0.00000000E+00  0.00000000E+00
  0.00000000E+00  0.00000000E+00  0.00000000E+00
  0.00000000E+00  0.00000000E+00  0.00000000E+00
  0.00000000E+00  0.00000000E+00  0.00000000E+00
  0.00000000E+00  0.00000000E+00  0.00000000E+00
  0.00000000E+00  0.00000000E+00  0.00000000E+00
  0.00000000E+00  0.00000000E+00  0.00000000E+00
  0.00000000E+00  0.00000000E+00  0.00000000E+00
  0.00000000E+00  0.00000000E+00  0.00000000E+00
  0.00000000E+00  0.00000000E+00  0.00000000E+00
  0.00000000E+00  0.00000000E+00  0.00000000E+00
  0.00000000E+00  0.00000000E+00  0.00000000E+00
