Cs8 Pb8 Br23
1.0
8.456489 0.000000 8.040301
0.000000 11.729847 0.000000
-8.456489 0.000000 8.040301
Cs Pb Br
8 8 23
direct
0.271214 0.248260 0.207214 Cs
0.775334 0.246844 0.706224 Cs
0.714170 0.751834 0.264519 Cs
0.211603 0.747278 0.773793 Cs
0.259159 0.237321 0.732019 Cs
0.801052 0.249668 0.227927 Cs
0.749717 0.763553 0.808521 Cs
0.216122 0.754165 0.280287 Cs
0.003052 0.002813 0.000803 Pb
0.499668 -0.001159 0.505690 Pb
0.503664 0.003109 0.005415 Pb
-0.000523 -0.002592 0.496680 Pb
0.499176 0.504587 0.003273 Pb
-0.002127 0.500389 0.497019 Pb
0.000712 0.499435 -0.002647 Pb
0.494456 0.490502 0.490277 Pb
0.477849 0.752453 0.964384 Br
0.965566 0.748937 0.460755 Br
0.969252 0.251303 0.964362 Br
0.456379 0.242288 0.487650 Br
0.027121 0.751121 0.021808 Br
0.531644 0.255704 0.040670 Br
0.021864 0.249058 0.521930 Br
0.251009 0.466744 0.945751 Br
0.739941 0.465189 0.446783 Br
0.448854 0.544299 0.244304 Br
0.945988 0.529771 0.743945 Br
0.554079 0.031780 0.757808 Br
0.054581 0.034633 0.250133 Br
0.755239 0.973666 0.055944 Br
0.254595 0.956331 0.547942 Br
0.250969 0.028836 0.956966 Br
0.746433 0.030987 0.450460 Br
0.452899 0.959057 0.256370 Br
0.960353 0.977933 0.744921 Br
0.752095 0.532515 0.045746 Br
0.249630 0.531020 0.548436 Br
0.053014 0.467766 0.248693 Br
0.538913 0.619924 0.652318 Br
