Cs64 Pb64 Br191
1.0
16.840035 0.000000 16.155961
0.000000 23.527616 0.000000
-16.840035 0.000000 16.155961
Cs Pb Br Cs Pb Br
56 56 168 8 8 23
direct
0.885994 0.875182 0.353404 Cs
0.135929 0.875051 0.603612 Cs
0.886274 0.374644 0.351904 Cs
0.135903 0.374475 0.606570 Cs
0.886430 0.875203 0.853880 Cs
0.136016 0.875112 0.103381 Cs
0.385784 0.875428 0.353441 Cs
0.636163 0.875252 0.603334 Cs
0.885788 0.374841 0.853227 Cs
0.136130 0.374887 0.103621 Cs
0.386028 0.875080 0.853679 Cs
0.636058 0.875049 0.103692 Cs
0.386988 0.374872 0.851440 Cs
0.636455 0.374787 0.102658 Cs
0.103335 0.124856 0.385904 Cs
0.353776 0.124779 0.636113 Cs
0.102736 0.625927 0.385678 Cs
0.103543 0.124878 0.886157 Cs
0.353421 0.124906 0.135821 Cs
0.603511 0.124762 0.385681 Cs
0.854907 0.124221 0.636173 Cs
0.103741 0.625017 0.885856 Cs
0.353988 0.625193 0.135833 Cs
0.855963 0.627844 0.638956 Cs
0.603789 0.125270 0.885606 Cs
0.853916 0.124827 0.135999 Cs
0.605371 0.624910 0.885877 Cs
0.853557 0.625196 0.136292 Cs
0.896542 0.875162 0.113921 Cs
0.146479 0.875133 0.363862 Cs
0.896381 0.374991 0.113755 Cs
0.146863 0.374286 0.363135 Cs
0.896272 0.875036 0.613859 Cs
0.146604 0.875150 0.864197 Cs
0.396255 0.875366 0.113463 Cs
0.646753 0.875825 0.363406 Cs
0.895852 0.373787 0.614459 Cs
0.146798 0.374877 0.863930 Cs
0.396174 0.375022 0.113178 Cs
0.396368 0.875128 0.614122 Cs
0.646335 0.875080 0.864194 Cs
0.646490 0.374955 0.863810 Cs
0.113862 0.124924 0.146142 Cs
0.363817 0.124782 0.396298 Cs
0.113917 0.625139 0.146199 Cs
0.114182 0.124911 0.646181 Cs
0.364028 0.124867 0.896506 Cs
0.613899 0.124845 0.145998 Cs
0.864321 0.124859 0.396435 Cs
0.113486 0.625541 0.646839 Cs
0.364342 0.624729 0.896806 Cs
0.614088 0.625497 0.144973 Cs
0.862648 0.626196 0.394289 Cs
0.613306 0.123257 0.646133 Cs
0.864548 0.124731 0.898022 Cs
0.864515 0.625288 0.897873 Cs
0.750517 0.750812 0.249503 Pb
-0.000045 0.750086 0.499884 Pb
0.750300 0.249518 0.249639 Pb
0.000025 0.249764 0.499896 Pb
0.750185 0.750567 0.750447 Pb
0.000086 0.750107 1.000009 Pb
0.249723 0.750463 0.249750 Pb
0.499898 0.750401 0.500104 Pb
0.751956 0.247832 0.750855 Pb
0.000058 0.250132 0.999979 Pb
0.249830 0.750440 0.750307 Pb
0.499930 0.750055 0.999688 Pb
0.249858 0.249331 0.750465 Pb
0.499997 0.249914 0.000098 Pb
0.000177 0.750321 0.249871 Pb
0.249995 0.750187 0.499881 Pb
0.000134 0.249899 0.249879 Pb
0.000258 0.750568 0.750333 Pb
0.249938 0.750093 0.999977 Pb
0.499283 0.751599 0.249177 Pb
0.749797 0.749771 0.499686 Pb
0.000273 0.249578 0.750236 Pb
0.249999 0.249924 0.999948 Pb
0.750036 0.249535 0.500217 Pb
0.500042 0.749891 0.750026 Pb
0.750115 0.750365 0.000091 Pb
0.499791 0.248899 0.750545 Pb
0.750109 0.249613 0.000050 Pb
0.000060 1.000024 0.249941 Pb
0.249970 0.999892 0.499978 Pb
0.000178 0.500009 0.249758 Pb
0.000123 -0.000037 0.750112 Pb
0.249986 0.000076 0.999965 Pb
0.499864 0.000457 0.249801 Pb
0.750029 0.999937 0.499917 Pb
1.000180 0.499856 0.750405 Pb
0.249995 0.500001 0.999953 Pb
0.753667 0.500773 0.501998 Pb
0.500007 0.999496 0.750197 Pb
0.749991 0.999937 1.000018 Pb
0.500609 0.500541 0.746947 Pb
0.750325 0.500018 1.000098 Pb
0.750134 0.000344 0.249883 Pb
0.000039 0.999761 0.499958 Pb
0.749850 0.499715 0.249664 Pb
0.000648 0.499454 0.499417 Pb
0.750159 0.999498 0.750145 Pb
0.000072 0.000020 1.000026 Pb
0.249938 0.000195 0.249887 Pb
0.499889 0.999971 0.499876 Pb
0.751130 0.501186 0.750579 Pb
0.000089 0.499884 0.999972 Pb
0.249970 0.999860 0.750066 Pb
0.500034 -0.000019 0.999950 Pb
0.250316 0.500102 0.750442 Pb
0.500071 0.499790 -0.001477 Pb
0.984451 0.125159 0.230762 Br
0.233969 0.124977 0.480461 Br
0.984355 0.624969 0.231048 Br
0.234706 0.624445 0.479021 Br
0.984962 0.124947 0.730521 Br
0.234349 0.125095 0.980390 Br
0.484198 0.125723 0.230185 Br
0.734102 0.125495 0.479854 Br
0.985547 0.625082 0.732289 Br
0.234463 0.624909 0.980534 Br
0.485710 0.625715 0.231517 Br
0.484290 0.124371 0.731314 Br
0.733912 0.124946 0.980671 Br
0.734544 0.624943 0.981733 Br
0.230449 0.875206 0.234154 Br
0.480279 0.874796 0.484391 Br
0.231321 0.375197 0.234260 Br
0.230391 0.874873 0.734074 Br
0.480733 0.874924 0.983899 Br
0.731675 0.875444 0.233863 Br
0.980348 0.874537 0.484215 Br
0.232650 0.374989 0.734451 Br
0.480191 0.375192 0.983119 Br
0.730552 0.374914 0.233152 Br
0.978783 0.375464 0.483950 Br
0.729982 0.874786 0.734081 Br
0.980878 0.875015 0.984471 Br
0.980263 0.375120 0.984089 Br
0.770053 0.125394 0.266085 Br
0.018826 0.125128 0.515644 Br
0.767019 0.624872 0.265561 Br
0.018309 0.624051 0.516177 Br
0.771501 0.124055 0.766978 Br
0.019044 0.125158 0.015585 Br
0.269752 0.125178 0.265765 Br
0.519292 0.125634 0.514834 Br
0.770142 0.625411 0.767238 Br
0.019353 0.624907 0.015359 Br
0.269615 0.124779 0.765778 Br
0.519602 0.125198 0.015254 Br
0.268354 0.624995 0.767475 Br
0.519534 0.624710 0.014506 Br
0.015795 0.875043 0.269646 Br
0.265907 0.874532 0.519416 Br
0.016223 0.375164 0.269471 Br
0.016217 0.875120 0.769733 Br
0.265645 0.875000 0.019142 Br
0.515522 0.875853 0.269501 Br
0.765672 0.874152 0.518413 Br
0.015964 0.374961 0.769041 Br
0.265483 0.375101 0.019308 Br
0.758798 0.376181 0.525184 Br
0.515807 0.874240 0.769454 Br
0.765800 0.875020 0.019735 Br
0.517885 0.374966 0.764011 Br
0.766057 0.374948 0.018485 Br
0.873951 0.982174 0.224531 Br
0.123923 0.981983 0.474554 Br
0.873765 0.482129 0.224867 Br
0.122673 0.482011 0.474678 Br
0.873930 0.981746 0.724475 Br
0.123936 0.982159 0.974546 Br
0.373972 0.982104 0.224471 Br
0.623905 0.982174 0.474526 Br
0.874574 0.483002 0.723752 Br
0.123954 0.482007 0.974468 Br
0.374220 0.482263 0.224921 Br
0.373993 0.981965 0.724521 Br
0.623919 0.982078 0.974550 Br
0.623997 0.481981 0.974290 Br
0.974583 0.017890 0.373982 Br
0.224654 0.017931 0.623829 Br
0.973950 0.518329 0.374279 Br
0.223629 0.518370 0.623456 Br
0.974611 0.017916 0.873861 Br
0.224560 0.018035 0.123923 Br
0.474557 0.018036 0.373943 Br
0.724820 0.017808 0.623786 Br
0.974460 0.517759 0.873741 Br
0.224730 0.517918 0.124022 Br
0.474622 0.017863 0.873827 Br
0.724581 0.018090 0.123958 Br
0.476608 0.517597 0.868426 Br
0.724425 0.517757 0.124624 Br
0.025603 0.767923 0.126198 Br
0.275659 0.767880 0.376123 Br
0.025474 0.268037 0.126136 Br
0.025223 0.767821 0.625980 Br
0.275595 0.768043 0.875986 Br
0.525132 0.768065 0.125699 Br
0.775287 0.767913 0.375937 Br
0.025250 0.267889 0.625973 Br
0.275816 0.268174 0.876036 Br
0.525721 0.268334 0.126167 Br
0.774867 0.269007 0.376540 Br
0.525657 0.768182 0.625763 Br
0.775602 0.768213 0.875972 Br
0.776027 0.266789 0.876266 Br
0.126161 0.232083 0.275543 Br
0.375518 0.231754 0.524769 Br
0.126216 0.732131 0.275487 Br
0.126269 0.232044 0.775595 Br
0.376185 0.232073 0.025549 Br
0.626158 0.232167 0.275664 Br
0.875703 0.232397 0.525596 Br
0.126173 0.732269 0.775527 Br
0.376166 0.732007 0.025285 Br
0.875787 0.730779 0.524408 Br
0.626630 0.232836 0.773002 Br
0.876064 0.232071 0.025691 Br
0.626208 0.732048 0.775281 Br
0.876122 0.732107 0.025629 Br
0.874222 0.767895 0.224383 Br
0.123966 0.767729 0.474439 Br
0.873882 0.268084 0.224496 Br
0.123527 0.268254 0.474548 Br
0.874018 0.768296 0.724689 Br
0.123949 0.767905 0.974470 Br
0.373774 0.768223 0.224056 Br
0.623807 0.768669 0.473914 Br
0.874595 0.266961 0.723890 Br
0.123921 0.267997 0.974487 Br
0.374019 0.268166 0.224289 Br
0.373997 0.767977 0.724568 Br
0.623964 0.767895 0.974603 Br
0.623951 0.268038 0.974303 Br
0.974433 0.232164 0.373939 Br
0.224964 0.232341 0.623819 Br
0.974433 0.731928 0.373981 Br
0.224354 0.731974 0.623794 Br
0.974433 0.232069 0.873843 Br
0.224507 0.232009 0.123909 Br
0.474447 0.232234 0.373718 Br
0.725803 0.228892 0.624202 Br
0.974576 0.732266 0.873919 Br
0.224569 0.732077 0.123915 Br
0.474602 0.232168 0.874161 Br
0.724525 0.231942 0.124161 Br
0.475170 0.730889 0.873473 Br
0.724765 0.732170 0.123814 Br
0.126149 0.018030 0.275467 Br
0.376151 0.017958 0.525422 Br
0.126182 0.518007 0.275956 Br
0.126155 0.018009 0.775410 Br
0.376157 0.017965 0.025403 Br
0.626128 0.018065 0.275335 Br
0.876013 0.017738 0.525286 Br
0.126714 0.517533 0.775065 Br
0.376331 0.518015 0.025095 Br
0.870949 0.518497 0.525007 Br
0.626151 0.017994 0.775378 Br
0.876078 0.017872 0.025524 Br
0.626447 0.517864 0.773891 Br
0.876072 0.517996 0.025779 Br
0.025507 0.982100 0.126134 Br
0.275396 0.982126 0.376148 Br
0.025506 0.482066 0.126275 Br
0.025392 0.982018 0.625991 Br
0.275517 0.982022 0.876019 Br
0.525488 0.982096 0.126103 Br
0.775494 0.982170 0.376135 Br
0.024048 0.481959 0.625218 Br
0.276255 0.481713 0.875751 Br
0.525702 0.482404 0.123249 Br
0.772548 0.478596 0.377527 Br
0.525440 0.982069 0.625953 Br
0.775464 0.981791 0.876054 Br
0.775913 0.483102 0.876165 Br
0.385803 0.374589 0.351990 Cs
0.636837 0.362912 0.620219 Cs
0.600907 0.632927 0.378965 Cs
0.351045 0.627868 0.638584 Cs
0.392410 0.370276 0.614151 Cs
0.646629 0.370444 0.360532 Cs
0.615625 0.627954 0.646364 Cs
0.363957 0.625576 0.393344 Cs
0.249934 0.249693 0.249818 Pb
0.499443 0.249693 0.499257 Pb
0.499734 0.249950 0.249492 Pb
0.249450 0.249612 0.499671 Pb
0.500177 0.500200 0.248368 Pb
0.246742 0.500216 0.499931 Pb
0.249812 0.500132 0.249810 Pb
0.492131 0.501836 0.502183 Pb
0.484652 0.624609 0.726709 Br
0.729824 0.623206 0.476855 Br
0.737860 0.374679 0.739297 Br
0.480375 0.376685 0.484764 Br
0.269181 0.625157 0.264757 Br
0.523755 0.624208 0.512661 Br
0.515936 0.375697 0.269137 Br
0.263435 0.375680 0.518726 Br
0.374565 0.481912 0.721993 Br
0.479567 0.518466 0.373124 Br
0.726765 0.521467 0.623487 Br
0.520860 0.264088 0.625880 Br
0.275491 0.268051 0.376060 Br
0.626070 0.736216 0.271859 Br
0.376372 0.730235 0.524899 Br
0.374055 0.266529 0.725836 Br
0.623590 0.270010 0.476842 Br
0.474011 0.733521 0.373674 Br
0.726097 0.732768 0.623625 Br
0.626135 0.516892 0.277819 Br
0.377204 0.517751 0.530604 Br
0.276335 0.482725 0.376840 Br
0.541849 0.484025 0.616769 Br
