Cs8 Pb7 Br24
1.0
8.420018 0.000000 8.077981
0.000000 11.763808 0.000000
-8.420018 0.000000 8.077981
Cs Pb Br Pb
8 6 24 1
direct
0.283817 0.260131 0.226877 Cs
0.755931 0.271067 0.692570 Cs
0.701697 0.736532 0.289702 Cs
0.213851 0.733744 0.753553 Cs
0.298306 0.263473 0.710280 Cs
0.786126 0.266276 0.246459 Cs
0.716183 0.739864 0.773118 Cs
0.244067 0.728930 0.307425 Cs
-0.000002 0.000010 -0.000003 Pb
0.500005 -0.000016 0.499995 Pb
0.499998 -0.000002 -0.000006 Pb
-0.000001 0.000004 0.499999 Pb
0.500000 0.500000 0.000000 Pb
-0.000000 0.500002 0.000020 Pb
0.461369 0.751839 0.957524 Br
0.978305 0.751976 0.459168 Br
0.938801 0.249042 0.970034 Br
0.486080 0.248037 0.469287 Br
0.061200 0.750953 0.029974 Br
0.513915 0.751933 0.530707 Br
0.538620 0.248162 0.042462 Br
0.021707 0.248029 0.540830 Br
0.246932 0.451764 0.951971 Br
0.750622 0.478719 0.458596 Br
0.461414 0.527526 0.246016 Br
0.951939 0.539710 0.750730 Br
0.555063 0.038560 0.753524 Br
0.052084 0.043873 0.251477 Br
0.752200 0.947972 0.051913 Br
0.251302 0.975215 0.556973 Br
0.247796 0.052033 0.948069 Br
0.748712 0.024780 0.443037 Br
0.444930 0.961430 0.246472 Br
0.947917 0.956128 0.748521 Br
0.753070 0.548233 0.048023 Br
0.249407 0.521299 0.541426 Br
0.538584 0.472473 0.753978 Br
0.048081 0.460295 0.249293 Br
-0.125025 0.500004 0.500004 Pb
