Cs Pb Br                                
   1.0000000000000000     
     8.4200180000000007    0.0000000000000000    8.0779809999999994
     0.0000000000000000   11.7638079999999992    0.0000000000000000
    -8.4200180000000007    0.0000000000000000    8.0779809999999994
   Cs   Pb   Br
     8     8    24
Selective dynamics
Direct
  0.2721250000000026  0.2500000000000000  0.2082359999999994   F   F   F
  0.8112411239627093  0.2723299577609168  0.7258753283995887   T   T   T
  0.8117472213348975  0.6767580527754262  0.2346472684980441   T   T   T
  0.3484849357417588  0.6857093395143892  0.7254994055987680   T   T   T
  0.3234636564648383  0.1404381045755585  0.6977599796568015   T   T   T
  0.7817350962041374  0.2632680405003711  0.2200903954346529   T   T   T
  0.7775792511210682  0.7259905158973012  0.7874458492267493   T   T   T
  0.2835371402206093  0.6862629997131720  0.2323249881467646   T   T   T
  0.0777849867215323  0.9743507833871021  0.0050001066083496   T   T   T
  0.5643824929861978  0.9476309397750740  0.4549161469502891   T   T   T
  0.5816437177679745  0.9652654001922869  0.9699772191782614   T   T   T
  0.0409495889482372  0.9442036699269565  0.4810228739456264   T   T   T
  0.5543442732537187  0.4748725391452879  0.9688398225661174   T   T   T
  0.0684839448884915  0.4600703634374312  0.4714672972224534   T   T   T
  0.0468843124375837  0.4940796542460077  0.9560613585730593   T   T   T
  0.5559967991111563  0.4738008536833007  0.4825674737218861   T   T   T
  0.5402442676554529  0.7369181369723705  0.0541402569594993   T   T   T
  0.0513481737903376  0.7093819966251402  0.4094140672494575   T   T   T
  0.0791272158446787  0.2499619976771257  0.8674753879952775   T   T   T
  0.5030303127656879  0.2111740432544167  0.4424990409759104   T   T   T
  0.0087285773817385  0.7388268845071835  0.0396046570072173   T   T   T
  0.5602245073181891  0.7012240193281727  0.4993679735717009   T   T   T
  0.5310654081279225  0.2127908421039209  0.9534184245756805   T   T   T
  0.9888518020219905  0.2159432123440865  0.4789848118590498   T   T   T
  0.3003630419324779  0.5111226489375440  0.9708546050058615   T   T   T
  0.8065942940288338  0.4977470981211454  0.4968884670163689   T   T   T
  0.5551831901491937  0.4731121910189557  0.2284101249617336   T   T   T
  0.0480722644697593  0.5868117119720253  0.7110794440629533   T   T   T
  0.5155210141137445  0.9341637729458157  0.7288330873643218   T   T   T
  0.0894952385641901  0.0054235954775663  0.2419111414080248   T   T   T
  0.8397457278785438  0.0449992471209839  0.9620759869196647   T   T   T
  0.3207608074772352  0.8953286826697848  0.4771052454174907   T   T   T
  0.3473734327394027  0.9749536055530115  0.0722570917182210   T   T   T
  0.8045997947958980  0.9631365659946951  0.6025745275384011   T   T   T
  0.7233224629462640  0.9467474091960213  0.2482787732815126   T   T   T
  0.1591615696238406  0.9105381796697003  0.7698763299716944   T   T   T
  0.8098543738596433  0.4582224486279003  0.9626125207403717   T   T   T
  0.3007468858146538  0.4486022184569336  0.4772857491613323   T   T   T
  0.5464510521077415  0.4578507562455485  0.7176316934297660   T   T   T
  0.0304567400434550  0.4136239220494460  0.1912463249435774   T   T   T

  0.00000000E+00  0.00000000E+00  0.00000000E+00
  0.00000000E+00  0.00000000E+00  0.00000000E+00
  0.00000000E+00  0.00000000E+00  0.00000000E+00
  0.00000000E+00  0.00000000E+00  0.00000000E+00
  0.00000000E+00  0.00000000E+00  0.00000000E+00
  0.00000000E+00  0.00000000E+00  0.00000000E+00
  0.00000000E+00  0.00000000E+00  0.00000000E+00
  0.00000000E+00  0.00000000E+00  0.00000000E+00
  0.00000000E+00  0.00000000E+00  0.00000000E+00
  0.00000000E+00  0.00000000E+00  0.00000000E+00
  0.00000000E+00  0.00000000E+00  0.00000000E+00
  0.00000000E+00  0.00000000E+00  0.00000000E+00
  0.00000000E+00  0.00000000E+00  0.00000000E+00
  0.00000000E+00  0.00000000E+00  0.00000000E+00
  0.00000000E+00  0.00000000E+00  0.00000000E+00
  0.00000000E+00  0.00000000E+00  0.00000000E+00
  0.00000000E+00  0.00000000E+00  0.00000000E+00
  0.00000000E+00  0.00000000E+00  0.00000000E+00
  0.00000000E+00  0.00000000E+00  0.00000000E+00
  0.00000000E+00  0.00000000E+00  0.00000000E+00
  0.00000000E+00  0.00000000E+00  0.00000000E+00
  0.00000000E+00  0.00000000E+00  0.00000000E+00
  0.00000000E+00  0.00000000E+00  0.00000000E+00
  0.00000000E+00  0.00000000E+00  0.00000000E+00
  0.00000000E+00  0.00000000E+00  0.00000000E+00
  0.00000000E+00  0.00000000E+00  0.00000000E+00
  0.00000000E+00  0.00000000E+00  0.00000000E+00
  0.00000000E+00  0.00000000E+00  0.00000000E+00
  0.00000000E+00  0.00000000E+00  0.00000000E+00
  0.00000000E+00  0.00000000E+00  0.00000000E+00
  0.00000000E+00  0.00000000E+00  0.00000000E+00
  0.00000000E+00  0.00000000E+00  0.00000000E+00
  0.00000000E+00  0.00000000E+00  0.00000000E+00
  0.00000000E+00  0.00000000E+00  0.00000000E+00
  0.00000000E+00  0.00000000E+00  0.00000000E+00
  0.00000000E+00  0.00000000E+00  0.00000000E+00
  0.00000000E+00  0.00000000E+00  0.00000000E+00
  0.00000000E+00  0.00000000E+00  0.00000000E+00
  0.00000000E+00  0.00000000E+00  0.00000000E+00
  0.00000000E+00  0.00000000E+00  0.00000000E+00
