Cs Pb Br 
 1.0000000000000000
     8.4200180000000007    0.0000000000000000    8.0779809999999994
     0.0000000000000000   11.7638079999999992    0.0000000000000000
    -8.4200180000000007    0.0000000000000000    8.0779809999999994
 Cs  Pb  Br 
   8   8  24
Selective dynamics
Cartesian
  0.5379465300020001  2.9409519999999998  3.8803470311410000   F   F   F
  0.7187815352258178  3.2036373357475174 12.4167974969700659   T   T   T
  4.8591919906854386  7.9612517953040216  8.4527548073751664   T   T   T
 -3.1744686224564869  8.0665530138541239  8.6756251036462988   T   T   T
 -3.1515817786101512  1.6520868981107728  8.2494251293414695   T   T   T
  4.7290584900836876  3.0970346809825484  8.0927272867737940   T   T   T
 -0.0830769336485869  8.5404130388367658 12.6422430251327658   T   T   T
  0.4312072422804827  8.0730661661298253  4.1671244715712108   T   T   T
  0.6128500006808212 -0.3017324595845124  0.6687364110020236   T   T   T
  0.9217086040165708 -0.6160595696264374  8.2338750467328019   T   T   T
 -3.2697750718776426 -0.4086111630948008 12.5339644478539238   T   T   T
 -3.7054249809971784 -0.6563773140839164  4.2164836377798149   T   T   T
 -3.4900599861302553  5.5863093749776338 12.3042521855347999   T   T   T
 -3.3931270803523104  5.4121794219681512  4.3617158746986187   T   T   T
  0.7647309063525195  5.8122581892564487  0.0237950744562269   T   T   T
  0.6182762415055368  5.5737022729664183  8.3895024632241331   T   T   T
 -4.3270134800678823  8.6689634750606928 12.8794078965336141   T   T   T
  5.4050967318881309  8.3450336069547753 11.8000096286369018   T   T   T
  1.7821122002248855  2.9405049479701320 15.7246188483697225   T   T   T
  0.5096743980328549  2.4842108994286320  7.6379681544669147   T   T   T
 -0.2599771462159911  8.6914176145806685  0.3904349490625227   T   T   T
  0.5124131095630885  8.2490647283649494  8.5593679283713939   T   T   T
  4.8637979991555369  2.5032306106688211  3.9136511953868789   T   T   T
 -4.1269287652222246  2.5403144889190643  3.7791752780354031   T   T   T
 -5.6455510299260627  6.0127487065526637 10.2688719988326262   T   T   T
  2.6077286381498417  5.8554012948543113 10.5295089775506909   T   T   T
  2.7514350907935983  5.5656009776063451  6.3298519111930389   T   T   T
  2.8374856136961135  6.9031403117902244 14.2103940776448052   T   T   T
 -1.7960914963872128 -0.7744847345098396 10.0518687890118770   T   T   T
 -1.2833446454313391  0.0638021358677717  2.6770944406943298   T   T   T
  7.3899950169290420 12.2931705032757801  6.4771005775273460   T   T   T
 -1.3164229816568316 10.5324747198202910  6.4451468158286280   T   T   T
 -6.1035334565075026 -0.2946409753666008 11.4677484035886792   T   T   T
  1.7010563867629176 -0.4336543598590659 11.3671274395043422   T   T   T
  3.9998764177636277 11.1373547462793887  7.8485763258244878   T   T   T
  3.2777887250053834 10.7113963223038393 15.5827315012126508   T   T   T
  7.1337916536176360  5.3904409069484771  6.2399728977079141   T   T   T
 -1.4864604070786063  5.2772703663014511  6.2849328427159268   T   T   T
 -1.4413440811830285  5.3860683891274119 10.2112364008798320   T   T   T
 -1.3538511990715598  4.8657924031966102  1.7909131466070218   T   T   T
