Cs4 Pb4 Br12                            
   1.0000000000000000     
     8.2847974878678379    0.0000000000000000    0.0000000000000000
     0.0000000000000000   11.6980795594975131    0.0000000000000000
     0.0000000000000000    0.0000000000000000    8.3203199703215791
   Cs   Pb   Br
     4     4    12
Direct
  0.0523892861769424  0.2500000000000000  0.4882390310061875
  0.4476107138230576  0.7500000000000000  0.9882390310061876
  0.5523892861769425  0.2500000000000000  0.0117609689938125
  0.9476107138230575  0.7500000000000000  0.5117609689938124
 -0.0000000000000000  0.0000000000000000 -0.0000000000000000
  0.5000000000000000  0.0000000000000000  0.5000000000000000
  0.5000000000000000  0.5000000000000000  0.5000000000000000
 -0.0000000000000000  0.5000000000000000 -0.0000000000000000
  0.5068703563585647  0.7500000000000000  0.4279719492317048
  0.9931296436414353  0.2500000000000000  0.9279719492317049
  0.0068703563585648  0.7500000000000000  0.0720280507682952
  0.4931296436414352  0.2500000000000000  0.5720280507682951
  0.2923023434379245  0.4636572178916856  0.2080131495653282
  0.2076976565620754  0.5363427821083145  0.7080131495653282
  0.7923023434379246  0.0363427821083144  0.2919868504346718
  0.7076976565620754  0.9636572178916855  0.7919868504346718
  0.2923023434379245  0.0363427821083144  0.2080131495653282
  0.2076976565620754  0.9636572178916855  0.7080131495653282
  0.7076976565620754  0.5363427821083145  0.7919868504346718
  0.7923023434379246  0.4636572178916856  0.2919868504346718

  0.00000000E+00  0.00000000E+00  0.00000000E+00
  0.00000000E+00  0.00000000E+00  0.00000000E+00
  0.00000000E+00  0.00000000E+00  0.00000000E+00
  0.00000000E+00  0.00000000E+00  0.00000000E+00
  0.00000000E+00  0.00000000E+00  0.00000000E+00
  0.00000000E+00  0.00000000E+00  0.00000000E+00
  0.00000000E+00  0.00000000E+00  0.00000000E+00
  0.00000000E+00  0.00000000E+00  0.00000000E+00
  0.00000000E+00  0.00000000E+00  0.00000000E+00
  0.00000000E+00  0.00000000E+00  0.00000000E+00
  0.00000000E+00  0.00000000E+00  0.00000000E+00
  0.00000000E+00  0.00000000E+00  0.00000000E+00
  0.00000000E+00  0.00000000E+00  0.00000000E+00
  0.00000000E+00  0.00000000E+00  0.00000000E+00
  0.00000000E+00  0.00000000E+00  0.00000000E+00
  0.00000000E+00  0.00000000E+00  0.00000000E+00
  0.00000000E+00  0.00000000E+00  0.00000000E+00
  0.00000000E+00  0.00000000E+00  0.00000000E+00
  0.00000000E+00  0.00000000E+00  0.00000000E+00
  0.00000000E+00  0.00000000E+00  0.00000000E+00
