Cs8 Pb8 Br24                            
   1.0000000000000000     
    11.7756845270676447    0.0000000000000000   -0.0000000000000000
    -0.0000000000000000   11.7132505335319550   -0.0000000000000000
     0.0000000000000000   -0.0000000000000000   11.7132505335319550
   Cs   Pb   Br
     8     8    24
Direct
  0.2206887227926657  0.2500000000000000  0.2500000000000000
  0.2500000000000000  0.2500000000000000  0.7500000000000000
  0.2500000000000000  0.7500000000000000  0.2500000000000000
  0.2793112772073343  0.7500000000000000  0.7500000000000000
  0.7206887227926657  0.2500000000000000  0.2500000000000000
  0.7500000000000000  0.2500000000000000  0.7500000000000000
  0.7500000000000000  0.7500000000000000  0.2500000000000000
  0.7793112772073343  0.7500000000000000  0.7500000000000000
  0.0000000000000000  0.0000000000000000  0.0000000000000000
  0.0000000000000000  0.0000000000000000  0.5000000000000000
  0.0000000000000000  0.5000000000000000  0.0000000000000000
  0.0000000000000000  0.5000000000000000  0.5000000000000000
  0.5000000000000000  0.0000000000000000  0.0000000000000000
  0.5000000000000000  0.0000000000000000  0.5000000000000000
  0.5000000000000000  0.5000000000000000  0.0000000000000000
  0.5000000000000000  0.5000000000000000  0.5000000000000000
  0.9669962264784004  0.2500000000000000  0.0411175420631764
  0.9669962264784004  0.2500000000000000  0.4588824579368236
  0.0330037735215996  0.7500000000000000  0.9588824579368236
  0.0330037735215996  0.7500000000000000  0.5411175420631764
  0.5313711801132257  0.2500000000000000  0.9660176074690696
  0.5313711801132257  0.2500000000000000  0.5339823925309304
  0.4686288198867743  0.7500000000000000  0.0339823925309304
  0.4686288198867743  0.7500000000000000  0.4660176074690696
  0.0313711801132257  0.9660176074690696  0.2500000000000000
  0.9686288198867743  0.0339823925309304  0.7500000000000000
  0.0313711801132257  0.5339823925309304  0.2500000000000000
  0.9686288198867743  0.4660176074690696  0.7500000000000000
  0.4669962264784004  0.0411175420631764  0.2500000000000000
  0.5330037735215996  0.9588824579368236  0.7500000000000000
  0.4669962264784004  0.4588824579368236  0.2500000000000000
  0.5330037735215996  0.5411175420631764  0.7500000000000000
  0.2500000000000000  0.0288370186421574  0.9711629813578426
  0.2500000000000000  0.0288370186421574  0.5288370186421574
  0.2500000000000000  0.4711629813578426  0.9711629813578426
  0.2500000000000000  0.4711629813578426  0.5288370186421574
  0.7500000000000000  0.9711629813578426  0.0288370186421574
  0.7500000000000000  0.9711629813578426  0.4711629813578426
  0.7500000000000000  0.5288370186421574  0.0288370186421574
  0.7500000000000000  0.5288370186421574  0.4711629813578426

  0.00000000E+00  0.00000000E+00  0.00000000E+00
  0.00000000E+00  0.00000000E+00  0.00000000E+00
  0.00000000E+00  0.00000000E+00  0.00000000E+00
  0.00000000E+00  0.00000000E+00  0.00000000E+00
  0.00000000E+00  0.00000000E+00  0.00000000E+00
  0.00000000E+00  0.00000000E+00  0.00000000E+00
  0.00000000E+00  0.00000000E+00  0.00000000E+00
  0.00000000E+00  0.00000000E+00  0.00000000E+00
  0.00000000E+00  0.00000000E+00  0.00000000E+00
  0.00000000E+00  0.00000000E+00  0.00000000E+00
  0.00000000E+00  0.00000000E+00  0.00000000E+00
  0.00000000E+00  0.00000000E+00  0.00000000E+00
  0.00000000E+00  0.00000000E+00  0.00000000E+00
  0.00000000E+00  0.00000000E+00  0.00000000E+00
  0.00000000E+00  0.00000000E+00  0.00000000E+00
  0.00000000E+00  0.00000000E+00  0.00000000E+00
  0.00000000E+00  0.00000000E+00  0.00000000E+00
  0.00000000E+00  0.00000000E+00  0.00000000E+00
  0.00000000E+00  0.00000000E+00  0.00000000E+00
  0.00000000E+00  0.00000000E+00  0.00000000E+00
  0.00000000E+00  0.00000000E+00  0.00000000E+00
  0.00000000E+00  0.00000000E+00  0.00000000E+00
  0.00000000E+00  0.00000000E+00  0.00000000E+00
  0.00000000E+00  0.00000000E+00  0.00000000E+00
  0.00000000E+00  0.00000000E+00  0.00000000E+00
  0.00000000E+00  0.00000000E+00  0.00000000E+00
  0.00000000E+00  0.00000000E+00  0.00000000E+00
  0.00000000E+00  0.00000000E+00  0.00000000E+00
  0.00000000E+00  0.00000000E+00  0.00000000E+00
  0.00000000E+00  0.00000000E+00  0.00000000E+00
  0.00000000E+00  0.00000000E+00  0.00000000E+00
  0.00000000E+00  0.00000000E+00  0.00000000E+00
  0.00000000E+00  0.00000000E+00  0.00000000E+00
  0.00000000E+00  0.00000000E+00  0.00000000E+00
  0.00000000E+00  0.00000000E+00  0.00000000E+00
  0.00000000E+00  0.00000000E+00  0.00000000E+00
  0.00000000E+00  0.00000000E+00  0.00000000E+00
  0.00000000E+00  0.00000000E+00  0.00000000E+00
  0.00000000E+00  0.00000000E+00  0.00000000E+00
  0.00000000E+00  0.00000000E+00  0.00000000E+00
