Cs8 Pb8 Br24                            
   1.0000000000000000     
    11.7756845270676447    0.0000000000000000   -0.0000000000000000
    -0.0000000000000000   11.7132505335319550   -0.0000000000000000
     0.0000000000000000   -0.0000000000000000   11.7132505335319550
   Cs   Pb   Br
     8     8    24
Direct
  0.2206887227926634  0.2500000000000000  0.2500000000000000
  0.2500000000000000  0.2500000000000000  0.7500000000000000
  0.2500000000000000  0.7500000000000000  0.2500000000000000
  0.2793112772073367  0.7500000000000000  0.7500000000000000
  0.7206887227926633  0.2500000000000000  0.2500000000000000
  0.7500000000000000  0.2500000000000000  0.7500000000000000
  0.7500000000000000  0.7500000000000000  0.2500000000000000
  0.7793112772073367  0.7500000000000000  0.7500000000000000
 -0.0000000000000000  0.0000000000000000 -0.0000000000000000
 -0.0000000000000000  0.0000000000000000  0.5000000000000000
 -0.0000000000000000  0.5000000000000000 -0.0000000000000000
 -0.0000000000000000  0.5000000000000000  0.5000000000000000
  0.5000000000000000  0.0000000000000000 -0.0000000000000000
  0.5000000000000000  0.0000000000000000  0.5000000000000000
  0.5000000000000000  0.5000000000000000 -0.0000000000000000
  0.5000000000000000  0.5000000000000000  0.5000000000000000
  0.9669962264784031  0.2500000000000000  0.0411175420631751
  0.9669962264784031  0.2500000000000000  0.4588824579368249
  0.0330037735215966  0.7500000000000000  0.9588824579368247
  0.0330037735215966  0.7500000000000000  0.5411175420631753
  0.5313711801132260  0.2500000000000000  0.9660176074690670
  0.5313711801132260  0.2500000000000000  0.5339823925309330
  0.4686288198867739  0.7500000000000000  0.0339823925309329
  0.4686288198867739  0.7500000000000000  0.4660176074690670
  0.0313711801132261  0.9660176074690670  0.2500000000000000
  0.9686288198867740  0.0339823925309329  0.7500000000000000
  0.0313711801132261  0.5339823925309330  0.2500000000000000
  0.9686288198867740  0.4660176074690670  0.7500000000000000
  0.4669962264784034  0.0411175420631751  0.2500000000000000
  0.5330037735215969  0.9588824579368247  0.7500000000000000
  0.4669962264784034  0.4588824579368249  0.2500000000000000
  0.5330037735215969  0.5411175420631753  0.7500000000000000
  0.2500000000000000  0.0288370186421539  0.9711629813578460
  0.2500000000000000  0.0288370186421539  0.5288370186421540
  0.2500000000000000  0.4711629813578461  0.9711629813578460
  0.2500000000000000  0.4711629813578461  0.5288370186421540
  0.7500000000000000  0.9711629813578460  0.0288370186421539
  0.7500000000000000  0.9711629813578460  0.4711629813578461
  0.7500000000000000  0.5288370186421540  0.0288370186421539
  0.7500000000000000  0.5288370186421540  0.4711629813578461

  0.00000000E+00  0.00000000E+00  0.00000000E+00
  0.00000000E+00  0.00000000E+00  0.00000000E+00
  0.00000000E+00  0.00000000E+00  0.00000000E+00
  0.00000000E+00  0.00000000E+00  0.00000000E+00
  0.00000000E+00  0.00000000E+00  0.00000000E+00
  0.00000000E+00  0.00000000E+00  0.00000000E+00
  0.00000000E+00  0.00000000E+00  0.00000000E+00
  0.00000000E+00  0.00000000E+00  0.00000000E+00
  0.00000000E+00  0.00000000E+00  0.00000000E+00
  0.00000000E+00  0.00000000E+00  0.00000000E+00
  0.00000000E+00  0.00000000E+00  0.00000000E+00
  0.00000000E+00  0.00000000E+00  0.00000000E+00
  0.00000000E+00  0.00000000E+00  0.00000000E+00
  0.00000000E+00  0.00000000E+00  0.00000000E+00
  0.00000000E+00  0.00000000E+00  0.00000000E+00
  0.00000000E+00  0.00000000E+00  0.00000000E+00
  0.00000000E+00  0.00000000E+00  0.00000000E+00
  0.00000000E+00  0.00000000E+00  0.00000000E+00
  0.00000000E+00  0.00000000E+00  0.00000000E+00
  0.00000000E+00  0.00000000E+00  0.00000000E+00
  0.00000000E+00  0.00000000E+00  0.00000000E+00
  0.00000000E+00  0.00000000E+00  0.00000000E+00
  0.00000000E+00  0.00000000E+00  0.00000000E+00
  0.00000000E+00  0.00000000E+00  0.00000000E+00
  0.00000000E+00  0.00000000E+00  0.00000000E+00
  0.00000000E+00  0.00000000E+00  0.00000000E+00
  0.00000000E+00  0.00000000E+00  0.00000000E+00
  0.00000000E+00  0.00000000E+00  0.00000000E+00
  0.00000000E+00  0.00000000E+00  0.00000000E+00
  0.00000000E+00  0.00000000E+00  0.00000000E+00
  0.00000000E+00  0.00000000E+00  0.00000000E+00
  0.00000000E+00  0.00000000E+00  0.00000000E+00
  0.00000000E+00  0.00000000E+00  0.00000000E+00
  0.00000000E+00  0.00000000E+00  0.00000000E+00
  0.00000000E+00  0.00000000E+00  0.00000000E+00
  0.00000000E+00  0.00000000E+00  0.00000000E+00
  0.00000000E+00  0.00000000E+00  0.00000000E+00
  0.00000000E+00  0.00000000E+00  0.00000000E+00
  0.00000000E+00  0.00000000E+00  0.00000000E+00
  0.00000000E+00  0.00000000E+00  0.00000000E+00
