Cs8 Pb8 Br23                            
   1.0000000000000000     
     8.4564889999999995    0.0000000000000000    8.0403009999999995
     0.0000000000000000   11.7298469999999995    0.0000000000000000
    -8.4564889999999995    0.0000000000000000    8.0403009999999995
   Cs   Pb   Br
     8     8    23
Direct
  0.2570199999999971  0.2402370000000005  0.1983230000000020
  0.7800050000000027  0.2460359999999966  0.7129449999999977
  0.7373609999999999  0.7591299999999990  0.2635239999999968
  0.1988750000000010  0.7503249999999966  0.7747460000000004
  0.2873719999999977  0.2478430000000031  0.7315129999999996
  0.7945360000000008  0.2486189999999979  0.2283159999999995
  0.7358880000000028  0.7530739999999980  0.8022640000000010
  0.2177089999999993  0.7534380000000027  0.2874770000000026
  0.9994039999999984  0.0002909999999972  0.9989080000000001
  0.4993649999999974  0.0058349999999976  0.4960730000000027
  0.4983999999999966  0.0007299999999972  0.9987250000000003
  0.0020549999999986  0.0002309999999994  0.5020719999999983
  0.5014090000000024  0.5001499999999979  0.9944649999999982
  0.0016999999999996  0.4986600000000010  0.5014850000000024
  0.9996950000000027  0.4991899999999987  0.0002380000000031
  0.5011870000000016  0.4919810000000027  0.5049660000000031
  0.4702970000000022  0.7492560000000026  0.9595199999999977
  0.9727310000000031  0.7493399999999966  0.4748590000000021
  0.9699809999999971  0.2498420000000010  0.9732979999999998
  0.4524600000000021  0.2495899999999978  0.4613119999999995
  0.0226680000000030  0.7495720000000006  0.0309829999999991
  0.5240999999999971  0.2527260000000027  0.0437909999999988
  0.0338929999999991  0.2496560000000017  0.5350790000000032
  0.2484090000000023  0.4685559999999995  0.9531980000000004
  0.7470319999999973  0.4650669999999977  0.4501959999999983
  0.9473729999999989  0.5309480000000022  0.7487550000000027
  0.5492970000000028  0.0361079999999987  0.7489130000000017
  0.0438400000000030  0.0264209999999991  0.2533839999999969
  0.7508750000000006  0.9737179999999981  0.0457589999999968
  0.2552149999999997  0.9598849999999999  0.5491650000000021
  0.2467159999999993  0.0294590000000028  0.9466820000000027
  0.7470830000000035  0.0332429999999988  0.4502579999999980
  0.4480939999999975  0.9616100000000003  0.2472360000000009
  0.9483740000000012  0.9678630000000013  0.7484510000000029
  0.7497889999999998  0.5301540000000031  0.0534940000000006
  0.2570920000000001  0.5386880000000005  0.5513729999999981
  0.5542319999999989  0.4658840000000026  0.7534980000000004
  0.0532230000000027  0.4692110000000014  0.2538079999999994
  0.4988320000000002  0.6515640000000005  0.3784399999999977

  0.00000000E+00  0.00000000E+00  0.00000000E+00
  0.00000000E+00  0.00000000E+00  0.00000000E+00
  0.00000000E+00  0.00000000E+00  0.00000000E+00
  0.00000000E+00  0.00000000E+00  0.00000000E+00
  0.00000000E+00  0.00000000E+00  0.00000000E+00
  0.00000000E+00  0.00000000E+00  0.00000000E+00
  0.00000000E+00  0.00000000E+00  0.00000000E+00
  0.00000000E+00  0.00000000E+00  0.00000000E+00
  0.00000000E+00  0.00000000E+00  0.00000000E+00
  0.00000000E+00  0.00000000E+00  0.00000000E+00
  0.00000000E+00  0.00000000E+00  0.00000000E+00
  0.00000000E+00  0.00000000E+00  0.00000000E+00
  0.00000000E+00  0.00000000E+00  0.00000000E+00
  0.00000000E+00  0.00000000E+00  0.00000000E+00
  0.00000000E+00  0.00000000E+00  0.00000000E+00
  0.00000000E+00  0.00000000E+00  0.00000000E+00
  0.00000000E+00  0.00000000E+00  0.00000000E+00
  0.00000000E+00  0.00000000E+00  0.00000000E+00
  0.00000000E+00  0.00000000E+00  0.00000000E+00
  0.00000000E+00  0.00000000E+00  0.00000000E+00
  0.00000000E+00  0.00000000E+00  0.00000000E+00
  0.00000000E+00  0.00000000E+00  0.00000000E+00
  0.00000000E+00  0.00000000E+00  0.00000000E+00
  0.00000000E+00  0.00000000E+00  0.00000000E+00
  0.00000000E+00  0.00000000E+00  0.00000000E+00
  0.00000000E+00  0.00000000E+00  0.00000000E+00
  0.00000000E+00  0.00000000E+00  0.00000000E+00
  0.00000000E+00  0.00000000E+00  0.00000000E+00
  0.00000000E+00  0.00000000E+00  0.00000000E+00
  0.00000000E+00  0.00000000E+00  0.00000000E+00
  0.00000000E+00  0.00000000E+00  0.00000000E+00
  0.00000000E+00  0.00000000E+00  0.00000000E+00
  0.00000000E+00  0.00000000E+00  0.00000000E+00
  0.00000000E+00  0.00000000E+00  0.00000000E+00
  0.00000000E+00  0.00000000E+00  0.00000000E+00
  0.00000000E+00  0.00000000E+00  0.00000000E+00
  0.00000000E+00  0.00000000E+00  0.00000000E+00
  0.00000000E+00  0.00000000E+00  0.00000000E+00
  0.00000000E+00  0.00000000E+00  0.00000000E+00
