Cs8 Pb8 Br23
1.0
8.456489 0.000000 8.040301
0.000000 11.729847 0.000000
-8.456489 0.000000 8.040301
Cs Pb Br
8 8 23
direct
0.257020 0.240237 0.198323 Cs
0.780005 0.246036 0.712945 Cs
0.737361 0.759130 0.263524 Cs
0.198875 0.750325 0.774746 Cs
0.287372 0.247843 0.731513 Cs
0.794536 0.248619 0.228316 Cs
0.735888 0.753074 0.802264 Cs
0.217709 0.753438 0.287477 Cs
-0.000596 0.000291 -0.001092 Pb
0.499365 0.005835 0.496073 Pb
0.498400 0.000730 -0.001275 Pb
0.002055 0.000231 0.502072 Pb
0.501409 0.500150 -0.005535 Pb
0.001700 0.498660 0.501485 Pb
-0.000305 0.499190 0.000238 Pb
0.501187 0.491981 0.504966 Pb
0.470297 0.749256 0.959520 Br
0.972731 0.749340 0.474859 Br
0.969981 0.249842 0.973298 Br
0.452460 0.249590 0.461312 Br
0.022668 0.749572 0.030983 Br
0.524100 0.252726 0.043791 Br
0.033893 0.249656 0.535079 Br
0.248409 0.468556 0.953198 Br
0.747032 0.465067 0.450196 Br
0.947373 0.530948 0.748755 Br
0.549297 0.036108 0.748913 Br
0.043840 0.026421 0.253384 Br
0.750875 0.973718 0.045759 Br
0.255215 0.959885 0.549165 Br
0.246716 0.029459 0.946682 Br
0.747083 0.033243 0.450258 Br
0.448094 0.961610 0.247236 Br
0.948374 0.967863 0.748451 Br
0.749789 0.530154 0.053494 Br
0.257092 0.538688 0.551373 Br
0.554232 0.465884 0.753498 Br
0.053223 0.469211 0.253808 Br
0.498832 0.651564 0.378440 Br
