Cs64 Pb64 Br191
1.0
16.840035 0.000000 16.155961
0.000000 23.527616 0.000000
-16.840035 0.000000 16.155961
Cs Pb Br Cs Pb Br
56 56 168 8 8 23
direct
0.886045 0.875081 0.353546 Cs
0.136069 0.874989 0.603773 Cs
0.886166 0.375023 0.353225 Cs
0.135692 0.374861 0.603818 Cs
0.888212 0.876329 0.853984 Cs
0.135892 0.875117 0.103150 Cs
0.384876 0.875076 0.351415 Cs
0.637954 0.875219 0.604032 Cs
0.886373 0.375020 0.854009 Cs
0.135864 0.374917 0.103374 Cs
0.385600 0.875711 0.854438 Cs
0.636042 0.875218 0.103487 Cs
0.387279 0.374782 0.850059 Cs
0.637133 0.374823 0.103305 Cs
0.103052 0.124876 0.385779 Cs
0.352508 0.124268 0.636199 Cs
0.100806 0.625072 0.385216 Cs
0.103457 0.124990 0.886004 Cs
0.354098 0.125068 0.136023 Cs
0.603867 0.124971 0.384682 Cs
0.853875 0.125133 0.636213 Cs
0.103709 0.625018 0.886282 Cs
0.351671 0.624988 0.134401 Cs
0.853350 0.625334 0.636490 Cs
0.603933 0.125232 0.886549 Cs
0.853778 0.125055 0.135959 Cs
0.603516 0.625284 0.885648 Cs
0.853763 0.624999 0.136518 Cs
0.896530 0.875078 0.113857 Cs
0.146168 0.875046 0.363501 Cs
0.896578 0.374931 0.114016 Cs
0.146488 0.374595 0.363936 Cs
0.896401 0.875149 0.613959 Cs
0.146640 0.875038 0.864081 Cs
0.395843 0.875028 0.113917 Cs
0.647399 0.874832 0.364066 Cs
0.896500 0.374880 0.613901 Cs
0.147208 0.374939 0.863376 Cs
0.395570 0.374915 0.112801 Cs
0.396163 0.875012 0.614925 Cs
0.647045 0.876825 0.865149 Cs
0.642976 0.375086 0.862434 Cs
0.113825 0.125035 0.146237 Cs
0.363650 0.124612 0.395708 Cs
0.114173 0.625019 0.146733 Cs
0.114077 0.125102 0.646407 Cs
0.363962 0.125405 0.896441 Cs
0.613948 0.125076 0.146541 Cs
0.864057 0.125021 0.396191 Cs
0.114093 0.624992 0.645881 Cs
0.365539 0.624610 0.896116 Cs
0.614345 0.625244 0.142365 Cs
0.864116 0.625068 0.396361 Cs
0.614751 0.124965 0.646863 Cs
0.864142 0.125154 0.896555 Cs
0.863664 0.625045 0.895808 Cs
0.750410 0.750388 0.249644 Pb
0.000168 0.750156 0.500067 Pb
0.750228 0.249727 0.249822 Pb
0.999870 0.249700 0.499942 Pb
0.751472 0.752782 0.752501 Pb
0.000050 0.749856 0.000065 Pb
0.249442 0.750653 0.249500 Pb
0.499744 0.752003 0.499725 Pb
0.750124 0.250512 0.750026 Pb
0.000029 0.250162 0.999972 Pb
0.250087 0.749795 0.750104 Pb
0.500001 0.750778 0.000259 Pb
0.249642 0.249333 0.750519 Pb
0.500010 0.250316 0.000068 Pb
0.000082 0.750264 0.249865 Pb
0.249634 0.749525 0.500197 Pb
0.000023 0.250015 0.249914 Pb
0.000399 0.750116 0.750225 Pb
0.249927 0.750185 0.999762 Pb
0.499997 0.749346 0.249630 Pb
0.751183 0.750588 0.500149 Pb
0.999901 0.250215 0.750052 Pb
0.249844 0.249936 0.999904 Pb
0.750028 0.249896 0.500194 Pb
0.500116 0.753404 0.752715 Pb
0.750223 0.750185 0.000267 Pb
0.500410 0.249849 0.749789 Pb
0.750145 0.250312 0.999910 Pb
0.999964 0.000141 0.249901 Pb
0.249725 0.999302 0.499911 Pb
0.000116 0.499828 0.249866 Pb
0.000110 0.000246 0.749963 Pb
0.249880 0.000256 0.999947 Pb
0.500106 0.999664 0.249863 Pb
0.750268 0.000643 0.499898 Pb
0.000019 0.500204 0.750027 Pb
0.249831 0.499857 0.999666 Pb
0.750252 0.499557 0.500406 Pb
0.499944 0.001268 0.750246 Pb
0.750197 0.000369 0.000130 Pb
0.500015 0.503344 0.746572 Pb
0.750277 0.500011 0.999855 Pb
0.750167 0.000052 0.249860 Pb
0.000007 0.999940 0.499988 Pb
0.750447 0.499879 0.249485 Pb
0.999672 0.499756 0.499883 Pb
0.750338 0.000897 0.750334 Pb
0.000115 0.000237 0.000104 Pb
0.249793 0.000357 0.249803 Pb
0.500229 0.000486 0.500229 Pb
0.750308 0.499457 0.749963 Pb
0.000064 0.500158 0.000016 Pb
0.249831 0.999635 0.750069 Pb
0.499967 0.000539 0.000108 Pb
0.249927 0.500365 0.750234 Pb
0.499904 0.499399 0.998507 Pb
0.984385 0.125088 0.230724 Br
0.234093 0.123916 0.479878 Br
0.984616 0.625044 0.231166 Br
0.230831 0.624845 0.479750 Br
0.984549 0.125255 0.730478 Br
0.234213 0.125105 0.980085 Br
0.484723 0.125342 0.232158 Br
0.733482 0.125347 0.479758 Br
0.984310 0.625181 0.730193 Br
0.235414 0.624998 0.980033 Br
0.484736 0.625278 0.224222 Br
0.484053 0.126078 0.728752 Br
0.734553 0.125364 0.980554 Br
0.733907 0.625240 0.980217 Br
0.230612 0.875365 0.233865 Br
0.481411 0.868706 0.483804 Br
0.230549 0.374670 0.234236 Br
0.230903 0.874497 0.734119 Br
0.480865 0.875674 0.984985 Br
0.730479 0.875018 0.234190 Br
0.980462 0.874827 0.484258 Br
0.233865 0.374823 0.732580 Br
0.479627 0.375238 0.982450 Br
0.731994 0.374969 0.233447 Br
0.980347 0.374800 0.484223 Br
0.730463 0.876470 0.735036 Br
0.981360 0.875033 0.984813 Br
0.980734 0.375195 0.984529 Br
0.769340 0.124937 0.265761 Br
0.019409 0.124805 0.515847 Br
0.767843 0.625039 0.266785 Br
0.018385 0.624808 0.515877 Br
0.769641 0.126123 0.765725 Br
0.019372 0.125176 0.015622 Br
0.269994 0.124986 0.265541 Br
0.519367 0.123098 0.515077 Br
0.765731 0.626178 0.764675 Br
0.019873 0.625019 0.015966 Br
0.268825 0.124548 0.766028 Br
0.519323 0.125708 0.015992 Br
0.271177 0.624696 0.765532 Br
0.518007 0.625050 0.012797 Br
0.015482 0.875123 0.269327 Br
0.266943 0.874023 0.520098 Br
0.015824 0.375017 0.269528 Br
0.016706 0.875141 0.768890 Br
0.265720 0.875138 0.018883 Br
0.515701 0.874344 0.271033 Br
0.766019 0.875506 0.517807 Br
0.015993 0.375340 0.769317 Br
0.265150 0.374986 0.019055 Br
0.763704 0.375075 0.521285 Br
0.516203 0.877418 0.771096 Br
0.765490 0.875226 0.019509 Br
0.516271 0.376939 0.758209 Br
0.766427 0.375381 0.019405 Br
0.873876 0.982042 0.224522 Br
0.124109 0.981704 0.474545 Br
0.874032 0.482235 0.224350 Br
0.122503 0.481938 0.473849 Br
0.873893 0.982167 0.724470 Br
0.123951 0.982147 0.974473 Br
0.374061 0.981986 0.224625 Br
0.623376 0.981831 0.474617 Br
0.873802 0.482284 0.724251 Br
0.123950 0.482043 0.974060 Br
0.373973 0.481875 0.224653 Br
0.374085 0.982132 0.724527 Br
0.623811 0.982774 0.975119 Br
0.623855 0.481936 0.974425 Br
0.974546 0.017929 0.373968 Br
0.224573 0.017907 0.623756 Br
0.974087 0.517830 0.373967 Br
0.225252 0.517683 0.623509 Br
0.974630 0.018053 0.873832 Br
0.224612 0.018127 0.123946 Br
0.474222 0.016979 0.374608 Br
0.724616 0.017959 0.623791 Br
0.974486 0.518107 0.873768 Br
0.224391 0.517531 0.123391 Br
0.474626 0.018523 0.873702 Br
0.724509 0.018093 0.123933 Br
0.476165 0.514184 0.868610 Br
0.724869 0.517979 0.123814 Br
0.025583 0.767914 0.126161 Br
0.275520 0.767966 0.376070 Br
0.025490 0.267927 0.126128 Br
0.025435 0.767993 0.626020 Br
0.275600 0.767883 0.875877 Br
0.524976 0.768446 0.127233 Br
0.775309 0.767714 0.375913 Br
0.025434 0.267928 0.626014 Br
0.275902 0.268389 0.875869 Br
0.525386 0.268944 0.126390 Br
0.775516 0.268187 0.376211 Br
0.527025 0.765575 0.626247 Br
0.778277 0.769171 0.876695 Br
0.775176 0.268447 0.875935 Br
0.126252 0.231962 0.275518 Br
0.376309 0.231512 0.525544 Br
0.126100 0.732453 0.275743 Br
0.125965 0.232249 0.775531 Br
0.376184 0.232096 0.025424 Br
0.626064 0.232524 0.275427 Br
0.875743 0.232066 0.525438 Br
0.126405 0.731701 0.775294 Br
0.376248 0.732383 0.025295 Br
0.876231 0.732109 0.525523 Br
0.626005 0.231947 0.775479 Br
0.876054 0.232112 0.025382 Br
0.626633 0.737495 0.780400 Br
0.876072 0.731844 0.025686 Br
0.873926 0.767956 0.224426 Br
0.124737 0.768138 0.474788 Br
0.873954 0.267838 0.224519 Br
0.123900 0.267373 0.474381 Br
0.874156 0.768368 0.724970 Br
0.123939 0.767835 0.974372 Br
0.374027 0.767786 0.225208 Br
0.623505 0.764625 0.474146 Br
0.873734 0.268334 0.724492 Br
0.123956 0.268074 0.974260 Br
0.374068 0.268415 0.224593 Br
0.374484 0.768073 0.724597 Br
0.623934 0.768053 0.974546 Br
0.623834 0.268350 0.974449 Br
0.974501 0.232050 0.373960 Br
0.225293 0.232372 0.623650 Br
0.974438 0.732218 0.374027 Br
0.225288 0.731588 0.623706 Br
0.974509 0.232166 0.873814 Br
0.224625 0.231932 0.123773 Br
0.474005 0.232701 0.374432 Br
0.724184 0.232311 0.623799 Br
0.974622 0.731987 0.873848 Br
0.224339 0.732486 0.123756 Br
0.475201 0.232777 0.873677 Br
0.724500 0.232021 0.123910 Br
0.473096 0.735594 0.874929 Br
0.724823 0.732152 0.123690 Br
0.126211 0.017993 0.275472 Br
0.376641 0.017314 0.525416 Br
0.126151 0.517658 0.275682 Br
0.126179 0.017968 0.775365 Br
0.376132 0.018081 0.025406 Br
0.626026 0.017649 0.275452 Br
0.875905 0.018127 0.525427 Br
0.126486 0.517975 0.775192 Br
0.376329 0.517767 0.024600 Br
0.874349 0.517699 0.525872 Br
0.626098 0.018658 0.775425 Br
0.876105 0.017967 0.025495 Br
0.625899 0.517561 0.775301 Br
0.876038 0.518257 0.025340 Br
0.025530 0.982176 0.126124 Br
0.275546 0.981822 0.376158 Br
0.025526 0.482110 0.126127 Br
0.025459 0.982060 0.626001 Br
0.275347 0.982238 0.876013 Br
0.525306 0.982157 0.126352 Br
0.775422 0.982149 0.376120 Br
0.025391 0.482052 0.625965 Br
0.276508 0.481444 0.875523 Br
0.525171 0.481446 0.122908 Br
0.774979 0.482254 0.376368 Br
0.525725 0.981373 0.625584 Br
0.775763 0.982231 0.876050 Br
0.775248 0.481966 0.875752 Br
0.384737 0.374533 0.353487 Cs
0.632661 0.378359 0.604198 Cs
0.612087 0.624887 0.380962 Cs
0.358105 0.622263 0.638786 Cs
0.385142 0.370829 0.615422 Cs
0.649308 0.374630 0.363183 Cs
0.624176 0.632358 0.661387 Cs
0.356518 0.625675 0.391295 Cs
0.249837 0.249623 0.249776 Pb
0.500196 0.247110 0.500296 Pb
0.500028 0.250814 0.249888 Pb
0.249185 0.248831 0.499450 Pb
0.499846 0.500809 0.246976 Pb
0.247847 0.500726 0.499286 Pb
0.249403 0.499377 0.249428 Pb
0.496873 0.495715 0.493331 Pb
0.485972 0.628323 0.741238 Br
0.735321 0.625124 0.482808 Br
0.728477 0.375830 0.733419 Br
0.478567 0.376535 0.491698 Br
0.265845 0.625059 0.262163 Br
0.515307 0.376286 0.273040 Br
0.262504 0.374574 0.515097 Br
0.374523 0.482792 0.722477 Br
0.621426 0.482577 0.472893 Br
0.477094 0.529567 0.370160 Br
0.722310 0.518343 0.623817 Br
0.525234 0.266982 0.625169 Br
0.275739 0.267285 0.375987 Br
0.626089 0.732868 0.273467 Br
0.377723 0.727291 0.524442 Br
0.373899 0.265105 0.725866 Br
0.623019 0.268544 0.474871 Br
0.477571 0.723958 0.376464 Br
0.727650 0.737447 0.624358 Br
0.625970 0.517548 0.272158 Br
0.374637 0.519668 0.520217 Br
0.275157 0.482261 0.375526 Br
0.519845 0.527001 0.613472 Br
