Cs64 Pb64 Br191
1.0
16.840035 0.000000 16.155961
0.000000 23.527616 0.000000
-16.840035 0.000000 16.155961
Cs Pb Br Cs Pb Br
56 56 168 8 8 23
direct
0.886003 0.875104 0.353653 Cs
0.136168 0.874900 0.603900 Cs
0.885936 0.375085 0.353310 Cs
0.135482 0.374742 0.603955 Cs
0.889045 0.876968 0.854084 Cs
0.135895 0.875104 0.103031 Cs
0.385497 0.874675 0.353487 Cs
0.637726 0.875166 0.603778 Cs
0.886400 0.375051 0.854063 Cs
0.135866 0.374924 0.103347 Cs
0.385602 0.875673 0.854804 Cs
0.635976 0.875216 0.103675 Cs
0.386876 0.373852 0.849386 Cs
0.638263 0.374539 0.103734 Cs
0.102579 0.124736 0.385690 Cs
0.352998 0.122998 0.636661 Cs
0.099894 0.625021 0.385065 Cs
0.103468 0.124971 0.885995 Cs
0.354202 0.124998 0.136212 Cs
0.603434 0.124793 0.384904 Cs
0.854071 0.124956 0.636311 Cs
0.103692 0.624993 0.886471 Cs
0.350257 0.625217 0.134528 Cs
0.853086 0.625699 0.636721 Cs
0.603836 0.125162 0.886718 Cs
0.853793 0.125025 0.136061 Cs
0.603314 0.625606 0.885207 Cs
0.853875 0.625094 0.136888 Cs
0.896505 0.875070 0.113913 Cs
0.146176 0.874971 0.363601 Cs
0.896659 0.374883 0.114064 Cs
0.146658 0.374144 0.364154 Cs
0.896390 0.875090 0.613980 Cs
0.146909 0.874932 0.864167 Cs
0.395790 0.874933 0.114223 Cs
0.646789 0.874565 0.364293 Cs
0.896663 0.374741 0.614043 Cs
0.147562 0.374962 0.863253 Cs
0.394267 0.374641 0.113424 Cs
0.396320 0.874660 0.614585 Cs
0.647583 0.877324 0.865742 Cs
0.643104 0.375038 0.863025 Cs
0.113883 0.125005 0.146405 Cs
0.364068 0.124083 0.395804 Cs
0.114143 0.625052 0.147011 Cs
0.114193 0.125159 0.646408 Cs
0.363960 0.125282 0.896430 Cs
0.613939 0.125062 0.146874 Cs
0.864053 0.124880 0.396267 Cs
0.114133 0.625006 0.645611 Cs
0.366611 0.624434 0.896041 Cs
0.614250 0.625637 0.141461 Cs
0.864066 0.625126 0.396711 Cs
0.614492 0.124587 0.646332 Cs
0.864210 0.125106 0.896650 Cs
0.863692 0.625102 0.896239 Cs
0.750400 0.750406 0.249706 Pb
0.000192 0.750076 0.500109 Pb
0.750172 0.249638 0.249939 Pb
0.999859 0.249499 0.499891 Pb
0.752347 0.753255 0.753094 Pb
0.000057 0.749862 0.000139 Pb
0.249466 0.750707 0.249660 Pb
0.500301 0.747616 0.500925 Pb
0.750229 0.250310 0.750250 Pb
0.000075 0.250205 0.000003 Pb
0.250401 0.749252 0.749959 Pb
0.499893 0.751010 0.000302 Pb
0.249577 0.249004 0.750694 Pb
0.500023 0.250294 0.000267 Pb
0.000094 0.750364 0.249937 Pb
0.249369 0.749323 0.500238 Pb
0.000016 0.250040 0.249943 Pb
0.000788 0.750093 0.750348 Pb
0.250028 0.750174 0.999718 Pb
0.499930 0.749157 0.249787 Pb
0.750993 0.750700 0.500284 Pb
0.999888 0.250313 0.750093 Pb
0.249859 0.249855 0.000022 Pb
0.750187 0.249393 0.499931 Pb
0.500283 0.753560 0.752670 Pb
0.750237 0.750283 0.000235 Pb
0.500548 0.249290 0.749930 Pb
0.750234 0.250342 0.999983 Pb
0.999994 0.000133 0.249960 Pb
0.249683 0.998888 0.499877 Pb
0.000084 0.499776 0.249942 Pb
0.000179 0.000266 0.749963 Pb
0.249903 0.000299 0.999988 Pb
0.500036 0.999530 0.249999 Pb
0.750257 0.000497 0.499898 Pb
0.999977 0.500338 0.749963 Pb
0.249730 0.499929 0.999552 Pb
0.750072 0.499585 0.500858 Pb
0.500091 0.000826 0.750291 Pb
0.750271 0.000422 0.000201 Pb
0.499741 0.503141 0.747583 Pb
0.750296 0.500301 0.999858 Pb
0.750154 0.999976 0.249992 Pb
0.999961 0.999795 0.500035 Pb
0.750518 0.500009 0.249561 Pb
0.999026 0.499588 0.500012 Pb
0.750358 0.000893 0.750358 Pb
0.000193 0.000330 0.000165 Pb
0.249828 0.000230 0.249871 Pb
0.500268 0.999247 0.500395 Pb
0.750359 0.499591 0.749924 Pb
0.000124 0.500221 0.000083 Pb
0.249858 0.999386 0.750047 Pb
0.499940 0.000660 0.000133 Pb
0.250223 0.500654 0.750093 Pb
0.499983 0.498976 0.000094 Pb
0.984416 0.125132 0.230915 Br
0.233644 0.123172 0.479014 Br
0.984681 0.625040 0.231427 Br
0.230210 0.624650 0.479466 Br
0.984760 0.125388 0.730682 Br
0.234206 0.125194 0.980098 Br
0.484808 0.125355 0.232902 Br
0.733365 0.125053 0.479556 Br
0.984276 0.625255 0.730033 Br
0.235957 0.625021 0.979368 Br
0.484318 0.624969 0.222517 Br
0.484413 0.125750 0.729465 Br
0.734636 0.125515 0.980679 Br
0.733148 0.625360 0.979697 Br
0.230270 0.875272 0.233812 Br
0.482901 0.864962 0.485115 Br
0.230634 0.374565 0.234064 Br
0.231156 0.874038 0.734315 Br
0.480859 0.875843 0.985443 Br
0.730359 0.874939 0.234550 Br
0.980380 0.874731 0.484335 Br
0.234869 0.374562 0.732364 Br
0.478468 0.375626 0.982807 Br
0.731770 0.374999 0.234263 Br
0.979895 0.374545 0.484296 Br
0.730659 0.876619 0.735276 Br
0.981653 0.875098 0.985089 Br
0.980771 0.375322 0.984615 Br
0.769336 0.124903 0.265850 Br
0.019284 0.124668 0.516058 Br
0.767794 0.624998 0.267169 Br
0.018075 0.624688 0.515956 Br
0.769970 0.126223 0.765968 Br
0.019556 0.125334 0.015764 Br
0.270073 0.124813 0.265619 Br
0.518735 0.120720 0.514728 Br
0.765740 0.626227 0.765118 Br
0.020046 0.625036 0.016168 Br
0.268528 0.124255 0.766147 Br
0.519344 0.126011 0.016389 Br
0.274244 0.624292 0.764170 Br
0.517430 0.624805 0.011827 Br
0.015405 0.875165 0.269584 Br
0.266793 0.873702 0.519956 Br
0.015721 0.375065 0.269699 Br
0.017340 0.875168 0.768701 Br
0.265812 0.875195 0.018776 Br
0.515248 0.874122 0.271024 Br
0.766248 0.875411 0.517711 Br
0.016118 0.375541 0.769416 Br
0.265014 0.375067 0.018922 Br
0.764772 0.374544 0.520365 Br
0.516356 0.877105 0.772299 Br
0.765323 0.875274 0.019614 Br
0.517200 0.376950 0.758601 Br
0.766593 0.375618 0.019327 Br
0.873868 0.982038 0.224568 Br
0.124017 0.981541 0.474584 Br
0.873967 0.482224 0.224305 Br
0.120432 0.481609 0.473218 Br
0.873963 0.982155 0.724557 Br
0.123971 0.982178 0.974492 Br
0.374050 0.981958 0.224718 Br
0.623457 0.981784 0.474531 Br
0.873821 0.482366 0.724235 Br
0.123999 0.482089 0.973947 Br
0.374127 0.481969 0.225172 Br
0.374145 0.982063 0.724702 Br
0.623827 0.983119 0.975461 Br
0.623551 0.481894 0.974802 Br
0.974494 0.017901 0.373983 Br
0.224560 0.017861 0.623811 Br
0.973437 0.517715 0.373886 Br
0.225120 0.517266 0.623411 Br
0.974706 0.018079 0.873880 Br
0.224648 0.018113 0.123965 Br
0.473877 0.015335 0.374677 Br
0.724709 0.017990 0.623886 Br
0.974541 0.518172 0.873807 Br
0.224414 0.517626 0.123090 Br
0.474659 0.018541 0.873868 Br
0.724521 0.018086 0.123964 Br
0.477129 0.511434 0.865329 Br
0.724832 0.518103 0.123889 Br
0.025605 0.767912 0.126194 Br
0.275375 0.767948 0.376055 Br
0.025504 0.267955 0.126145 Br
0.025493 0.767966 0.626112 Br
0.275685 0.767661 0.875900 Br
0.524988 0.768412 0.127347 Br
0.775254 0.767609 0.375949 Br
0.025438 0.267858 0.626070 Br
0.275816 0.268224 0.875871 Br
0.525416 0.269714 0.126426 Br
0.775494 0.268090 0.376237 Br
0.526813 0.766604 0.627018 Br
0.779772 0.769860 0.877008 Br
0.775232 0.268418 0.875966 Br
0.126199 0.231921 0.275593 Br
0.376068 0.229268 0.525450 Br
0.126014 0.732469 0.275871 Br
0.125905 0.232332 0.775582 Br
0.376202 0.232088 0.025564 Br
0.626079 0.232607 0.275660 Br
0.875722 0.231789 0.525511 Br
0.126703 0.731168 0.775372 Br
0.376215 0.732335 0.025493 Br
0.876384 0.732112 0.525605 Br
0.626084 0.231858 0.775563 Br
0.876044 0.232162 0.025440 Br
0.627159 0.739150 0.781669 Br
0.876053 0.731716 0.025808 Br
0.873943 0.767929 0.224384 Br
0.124480 0.768128 0.474649 Br
0.873919 0.267874 0.224552 Br
0.123701 0.266055 0.474080 Br
0.874687 0.768680 0.725434 Br
0.123887 0.767730 0.974394 Br
0.373967 0.767743 0.225687 Br
0.623873 0.764441 0.474416 Br
0.873724 0.268290 0.724573 Br
0.123937 0.268147 0.974236 Br
0.374049 0.268246 0.224818 Br
0.374893 0.768054 0.724719 Br
0.623918 0.768037 0.974601 Br
0.623793 0.268463 0.974586 Br
0.974345 0.232041 0.373978 Br
0.226110 0.232507 0.623664 Br
0.974258 0.732276 0.374033 Br
0.225139 0.731691 0.623739 Br
0.974485 0.232212 0.873857 Br
0.224652 0.231920 0.123699 Br
0.473737 0.233172 0.374332 Br
0.724164 0.232128 0.623854 Br
0.974701 0.731953 0.873925 Br
0.224294 0.732396 0.123748 Br
0.475143 0.232823 0.873986 Br
0.724484 0.232070 0.123915 Br
0.472562 0.736242 0.875499 Br
0.724950 0.732123 0.123642 Br
0.126171 0.017959 0.275492 Br
0.376587 0.016266 0.525720 Br
0.126042 0.517611 0.275713 Br
0.126191 0.017937 0.775401 Br
0.376135 0.018141 0.025431 Br
0.625991 0.017549 0.275574 Br
0.875967 0.018107 0.525470 Br
0.126956 0.518162 0.774938 Br
0.376525 0.517920 0.025015 Br
0.873534 0.517269 0.527343 Br
0.626190 0.018705 0.775582 Br
0.876137 0.017946 0.025559 Br
0.625762 0.517076 0.775274 Br
0.875998 0.518417 0.025403 Br
0.025555 0.982185 0.126165 Br
0.275526 0.981608 0.376168 Br
0.025517 0.482104 0.126126 Br
0.025532 0.982103 0.626061 Br
0.275327 0.982289 0.876080 Br
0.525268 0.982234 0.126418 Br
0.775389 0.982063 0.376124 Br
0.025406 0.481998 0.626055 Br
0.277454 0.481407 0.875233 Br
0.525183 0.481472 0.122364 Br
0.774452 0.482691 0.376602 Br
0.525905 0.980902 0.625971 Br
0.775950 0.982260 0.876140 Br
0.775162 0.481912 0.875857 Br
0.384908 0.374170 0.354864 Cs
0.635817 0.372117 0.603509 Cs
0.614198 0.625237 0.381986 Cs
0.362625 0.621701 0.636240 Cs
0.379943 0.367526 0.614226 Cs
0.649321 0.375020 0.363956 Cs
0.625972 0.635308 0.663475 Cs
0.356392 0.626177 0.392329 Cs
0.249915 0.249476 0.249894 Pb
0.499899 0.247464 0.500265 Pb
0.500056 0.250982 0.250058 Pb
0.249084 0.247363 0.499171 Pb
0.499863 0.501226 0.246681 Pb
0.246593 0.500450 0.499095 Pb
0.249358 0.499334 0.249579 Pb
0.496288 0.497022 0.490746 Pb
0.487130 0.627666 0.744511 Br
0.736097 0.624914 0.483999 Br
0.728840 0.375844 0.733985 Br
0.478773 0.372539 0.495428 Br
0.265679 0.625005 0.262916 Br
0.515047 0.376655 0.273600 Br
0.259530 0.373702 0.512536 Br
0.375437 0.481791 0.720893 Br
0.620956 0.481927 0.474643 Br
0.478708 0.532640 0.370198 Br
0.720726 0.517729 0.624260 Br
0.525217 0.264906 0.625801 Br
0.276137 0.266498 0.375913 Br
0.626094 0.732657 0.273021 Br
0.377226 0.728284 0.524185 Br
0.373997 0.264043 0.726520 Br
0.623188 0.268162 0.474689 Br
0.477828 0.723565 0.376403 Br
0.728836 0.739005 0.624944 Br
0.625784 0.517843 0.271728 Br
0.372325 0.513414 0.519531 Br
0.274816 0.482217 0.375017 Br
0.511026 0.572950 0.585940 Br
