Cs63 Pb64 Br192
1.0
16.840035 0.000000 16.155961
0.000000 23.527616 0.000000
-16.840035 0.000000 16.155961
Cs Pb Br Cs Pb Br Cs
56 56 168 6 8 24 1
direct
0.886472 0.875140 0.353962 Cs
0.136568 0.875022 0.603760 Cs
0.886541 0.375518 0.353979 Cs
0.137534 0.375748 0.603998 Cs
0.886456 0.875210 0.853869 Cs
0.136775 0.875035 0.104281 Cs
0.387652 0.875396 0.354639 Cs
0.636677 0.875964 0.604438 Cs
0.886359 0.375365 0.853818 Cs
0.136621 0.375553 0.104467 Cs
0.386388 0.874938 0.854348 Cs
0.636072 0.874800 0.105521 Cs
0.386318 0.375644 0.854082 Cs
0.636125 0.375942 0.105314 Cs
0.106104 0.125333 0.386985 Cs
0.353828 0.125470 0.636040 Cs
0.108672 0.625160 0.386891 Cs
0.103853 0.125311 0.886384 Cs
0.354076 0.125470 0.137836 Cs
0.603906 0.125505 0.386610 Cs
0.853834 0.125368 0.636313 Cs
0.104020 0.625319 0.886699 Cs
0.353467 0.625457 0.137942 Cs
0.853322 0.625466 0.634699 Cs
0.603885 0.125283 0.886593 Cs
0.853702 0.125322 0.136460 Cs
0.603477 0.625434 0.886514 Cs
0.854771 0.625279 0.136061 Cs
0.896616 0.875004 0.114471 Cs
0.146145 0.875210 0.364305 Cs
0.896641 0.375514 0.114454 Cs
0.146029 0.376154 0.364206 Cs
0.897109 0.875056 0.613987 Cs
0.146804 0.875092 0.864285 Cs
0.396983 0.874691 0.114796 Cs
0.646234 0.874803 0.363917 Cs
0.897927 0.375562 0.613992 Cs
0.146851 0.375476 0.864238 Cs
0.397108 0.376280 0.114687 Cs
0.396990 0.875553 0.614253 Cs
0.646665 0.875143 0.864378 Cs
0.646377 0.375429 0.864291 Cs
0.114309 0.125312 0.146823 Cs
0.364525 0.126117 0.396666 Cs
0.116457 0.625253 0.148115 Cs
0.114288 0.125315 0.646684 Cs
0.364109 0.125307 0.896732 Cs
0.613959 0.125372 0.147083 Cs
0.864092 0.125348 0.396653 Cs
0.114868 0.625255 0.645844 Cs
0.364342 0.625205 0.896579 Cs
0.614320 0.625407 0.148503 Cs
0.864003 0.625296 0.397844 Cs
0.613805 0.125289 0.646101 Cs
0.864244 0.125253 0.896927 Cs
0.864076 0.625283 0.896404 Cs
0.749853 0.749806 0.250688 Pb
0.001090 0.750416 0.499929 Pb
0.750060 0.250788 0.250291 Pb
0.000328 0.250546 0.500119 Pb
0.750150 0.750528 0.750197 Pb
0.000297 0.750175 0.000406 Pb
0.251799 0.750164 0.251948 Pb
0.501188 0.749359 0.499512 Pb
0.750139 0.250348 0.750158 Pb
0.000177 0.250544 0.000208 Pb
0.250227 0.750381 0.749898 Pb
0.500393 0.750160 0.001026 Pb
0.250193 0.250559 0.750085 Pb
0.500105 0.250534 0.000244 Pb
0.000405 0.750165 0.250358 Pb
0.252576 0.749912 0.499919 Pb
0.000277 0.250488 0.250257 Pb
0.000234 0.750287 0.750068 Pb
0.250424 0.750401 0.000585 Pb
0.501410 0.749180 0.253439 Pb
0.749865 0.750612 0.499985 Pb
0.000202 0.250642 0.750101 Pb
0.250310 0.250536 0.000325 Pb
0.750210 0.250920 0.500155 Pb
0.500282 0.750640 0.749922 Pb
0.750071 0.750451 0.000288 Pb
0.500180 0.250491 0.750128 Pb
0.750111 0.250654 0.000253 Pb
0.000199 0.000469 0.250197 Pb
0.250423 0.000130 0.500190 Pb
0.000532 0.500723 0.250344 Pb
0.000181 0.000352 0.750110 Pb
0.250326 0.000469 0.000289 Pb
0.500189 0.000419 0.250241 Pb
0.750153 0.000279 0.500104 Pb
0.000218 0.500672 0.750033 Pb
0.250394 0.500509 0.000587 Pb
0.750520 0.500832 0.500154 Pb
0.500181 0.000386 0.750160 Pb
0.750085 0.000312 0.000238 Pb
0.500386 0.500690 0.750017 Pb
0.750065 0.500540 0.000257 Pb
0.750175 0.000469 0.250284 Pb
0.000240 0.000591 0.500123 Pb
0.749890 0.501383 0.250690 Pb
0.001860 0.500597 0.500027 Pb
0.750178 0.000592 0.750194 Pb
0.000235 0.000327 0.000282 Pb
0.250279 0.000155 0.250377 Pb
0.500219 0.000264 0.500150 Pb
0.750264 0.500554 0.750329 Pb
0.000324 0.500612 0.000388 Pb
0.250193 0.000467 0.750154 Pb
0.500115 0.000427 0.000298 Pb
0.250308 0.500813 0.749887 Pb
0.500405 0.500634 0.001110 Pb
0.984353 0.125714 0.230662 Br
0.235876 0.126148 0.482221 Br
0.985332 0.625642 0.230060 Br
0.236188 0.625785 0.484869 Br
0.984592 0.125740 0.731093 Br
0.234278 0.125729 0.980901 Br
0.484647 0.126197 0.232176 Br
0.734648 0.125832 0.481162 Br
0.984370 0.625718 0.730095 Br
0.234439 0.625664 0.981417 Br
0.483917 0.626085 0.229241 Br
0.484442 0.125686 0.731151 Br
0.734630 0.125689 0.981230 Br
0.734637 0.625728 0.980572 Br
0.230983 0.876052 0.234438 Br
0.482059 0.876292 0.485553 Br
0.230503 0.375763 0.234151 Br
0.230859 0.875869 0.734747 Br
0.481090 0.875751 0.984918 Br
0.732179 0.875853 0.234865 Br
0.981915 0.875981 0.484220 Br
0.231462 0.375631 0.735043 Br
0.481056 0.375562 0.984688 Br
0.731493 0.375910 0.235203 Br
0.982327 0.375638 0.483906 Br
0.731438 0.875940 0.735180 Br
0.981028 0.875588 0.984663 Br
0.980911 0.375637 0.984561 Br
0.769716 0.125885 0.266295 Br
0.020596 0.125826 0.516102 Br
0.772756 0.625835 0.265400 Br
0.020558 0.625799 0.515361 Br
0.770384 0.125726 0.766590 Br
0.019716 0.125649 0.016196 Br
0.269024 0.126005 0.266756 Br
0.519254 0.126185 0.515697 Br
0.769922 0.625764 0.765689 Br
0.020552 0.625579 0.017091 Br
0.269798 0.125725 0.766264 Br
0.520046 0.125717 0.016364 Br
0.270502 0.625801 0.765610 Br
0.520623 0.625622 0.016764 Br
0.015897 0.875852 0.269399 Br
0.266024 0.876372 0.520746 Br
0.015934 0.375520 0.269329 Br
0.016352 0.875742 0.769952 Br
0.266586 0.875867 0.019649 Br
0.516572 0.876206 0.268195 Br
0.767294 0.876324 0.520237 Br
0.016309 0.375748 0.769919 Br
0.266507 0.375540 0.019820 Br
0.767512 0.375350 0.520479 Br
0.516296 0.876000 0.770536 Br
0.765846 0.875770 0.020398 Br
0.516011 0.375531 0.769549 Br
0.765972 0.375686 0.020205 Br
0.874193 0.982407 0.224612 Br
0.124178 0.982536 0.474683 Br
0.874732 0.482188 0.224919 Br
0.126264 0.482731 0.476105 Br
0.874213 0.982177 0.724610 Br
0.124181 0.982214 0.974666 Br
0.374205 0.982408 0.224570 Br
0.624397 0.982448 0.474546 Br
0.874391 0.482117 0.724798 Br
0.124181 0.482189 0.974792 Br
0.375683 0.481863 0.225639 Br
0.374175 0.982391 0.724895 Br
0.624173 0.982250 0.974720 Br
0.624317 0.482143 0.974776 Br
0.974746 0.018440 0.374125 Br
0.224649 0.018326 0.624345 Br
0.975533 0.518622 0.374237 Br
0.225456 0.518218 0.624486 Br
0.974602 0.018216 0.874144 Br
0.224664 0.018320 0.124104 Br
0.474648 0.018299 0.374156 Br
0.724724 0.018506 0.624324 Br
0.974691 0.518400 0.874102 Br
0.226017 0.517357 0.124596 Br
0.474612 0.018356 0.874243 Br
0.724567 0.018325 0.124139 Br
0.474914 0.518205 0.874480 Br
0.724700 0.518344 0.124229 Br
0.025816 0.768347 0.126141 Br
0.273411 0.773322 0.376602 Br
0.025861 0.268261 0.126181 Br
0.026031 0.768349 0.626425 Br
0.275694 0.768215 0.876427 Br
0.525406 0.768019 0.126474 Br
0.776440 0.768581 0.376367 Br
0.026353 0.268664 0.626341 Br
0.275845 0.268253 0.876366 Br
0.525916 0.268137 0.126134 Br
0.775941 0.268463 0.376288 Br
0.526495 0.769138 0.626961 Br
0.776145 0.768538 0.876564 Br
0.775847 0.268316 0.876316 Br
0.126172 0.232272 0.275776 Br
0.376390 0.233262 0.526228 Br
0.126365 0.733006 0.275851 Br
0.126157 0.232320 0.775851 Br
0.376202 0.231971 0.025999 Br
0.626300 0.232325 0.275811 Br
0.876350 0.232179 0.525798 Br
0.126184 0.732069 0.775870 Br
0.376230 0.731885 0.026006 Br
0.876809 0.733961 0.525979 Br
0.626271 0.232142 0.775932 Br
0.876205 0.232265 0.025808 Br
0.626459 0.732765 0.776575 Br
0.876289 0.732271 0.025677 Br
0.874699 0.768293 0.224789 Br
0.124925 0.768145 0.475417 Br
0.874187 0.268165 0.224620 Br
0.124171 0.268231 0.474453 Br
0.874285 0.768387 0.724817 Br
0.124145 0.768222 0.974691 Br
0.374919 0.768436 0.225260 Br
0.625221 0.773235 0.478353 Br
0.874160 0.268352 0.724495 Br
0.124104 0.268275 0.974612 Br
0.374220 0.269170 0.225065 Br
0.374199 0.768698 0.725196 Br
0.624275 0.768292 0.974715 Br
0.624146 0.268247 0.974678 Br
0.974784 0.232103 0.374216 Br
0.224627 0.232178 0.624356 Br
0.974885 0.732129 0.374209 Br
0.224580 0.733319 0.624576 Br
0.974626 0.232241 0.874145 Br
0.224732 0.232261 0.124297 Br
0.475033 0.233497 0.374342 Br
0.724693 0.232061 0.624352 Br
0.974722 0.732064 0.874196 Br
0.225361 0.733808 0.124566 Br
0.474646 0.232168 0.874234 Br
0.724634 0.232278 0.124169 Br
0.474778 0.732262 0.874451 Br
0.724774 0.732182 0.124160 Br
0.126175 0.018299 0.275792 Br
0.376314 0.018354 0.525852 Br
0.126753 0.517727 0.275363 Br
0.126198 0.018332 0.775929 Br
0.376263 0.018989 0.026304 Br
0.626348 0.018415 0.275905 Br
0.876400 0.018598 0.525870 Br
0.126266 0.518540 0.775982 Br
0.376308 0.518922 0.026159 Br
0.877936 0.517079 0.526170 Br
0.626336 0.018494 0.775966 Br
0.876251 0.018243 0.025883 Br
0.626635 0.518055 0.777029 Br
0.876326 0.518236 0.025717 Br
0.025856 0.982203 0.126154 Br
0.276087 0.982584 0.376287 Br
0.025733 0.482143 0.126049 Br
0.025888 0.982272 0.626277 Br
0.275884 0.982292 0.876289 Br
0.526055 0.982737 0.126156 Br
0.775934 0.982344 0.376218 Br
0.026625 0.482354 0.626464 Br
0.275681 0.482388 0.876385 Br
0.525502 0.482759 0.126539 Br
0.776896 0.482645 0.376480 Br
0.526167 0.982988 0.626482 Br
0.775875 0.982257 0.876305 Br
0.776358 0.482394 0.876652 Br
0.388908 0.376097 0.355645 Cs
0.637117 0.375417 0.604633 Cs
0.355436 0.625972 0.635025 Cs
0.399189 0.376044 0.614929 Cs
0.646293 0.377763 0.364613 Cs
0.615609 0.625544 0.646835 Cs
0.250278 0.251391 0.250422 Pb
0.500425 0.251571 0.500241 Pb
0.500348 0.251561 0.250310 Pb
0.250617 0.251587 0.500294 Pb
0.501706 0.502737 0.253528 Pb
0.253747 0.501063 0.499971 Pb
0.252741 0.500800 0.251962 Pb
0.501635 0.503161 0.499693 Pb
0.485245 0.625817 0.731560 Br
0.737801 0.625870 0.486532 Br
0.731494 0.375490 0.735354 Br
0.483843 0.376362 0.486332 Br
0.266820 0.625721 0.266374 Br
0.518167 0.626465 0.521268 Br
0.517501 0.376116 0.268241 Br
0.267463 0.375575 0.522011 Br
0.374411 0.482421 0.725703 Br
0.626152 0.479429 0.479087 Br
0.472614 0.514565 0.375029 Br
0.725906 0.517927 0.625114 Br
0.526850 0.267803 0.626626 Br
0.276349 0.269346 0.376423 Br
0.627137 0.732597 0.276673 Br
0.377048 0.737905 0.530149 Br
0.374149 0.268264 0.724723 Br
0.624413 0.268708 0.474304 Br
0.472549 0.736669 0.374942 Br
0.725067 0.733846 0.624894 Br
0.627427 0.519523 0.277199 Br
0.378120 0.513822 0.530804 Br
0.527568 0.483221 0.626945 Br
0.273912 0.477409 0.376593 Br
0.485786 0.626045 0.393662 Cs
