Cs4 Pb4 Br12                            
   1.0000000000000000     
     8.4014815089720543    0.0000000000000000    0.0000000000000000
     0.0000000000000000   12.1167220181788018    0.0000000000000000
     0.0000000000000000    0.0000000000000000    7.9319807318811781
   Cs   Pb   Br
     4     4    12
Direct
  0.0628047040082670  0.2500000000000000  0.4795968734913578
  0.4371952959917401  0.7500000000000000  0.9795968734913580
  0.5628047040082601  0.2500000000000000  0.0204031265086422
  0.9371952959917399  0.7500000000000000  0.5204031265086420
  0.0000000000000000 -0.0000000000000000  0.0000000000000000
  0.5000000000000000 -0.0000000000000000  0.5000000000000000
  0.5000000000000000  0.5000000000000000  0.5000000000000000
  0.0000000000000000  0.5000000000000000  0.0000000000000000
  0.5019757339115151  0.7500000000000000  0.4533960729130449
  0.9980242660884849  0.2500000000000000  0.9533960729130448
  0.0019757339115151  0.7500000000000000  0.0466039270869551
  0.4980242660884848  0.2500000000000000  0.5466039270869552
  0.3076499631654310  0.4720310985248327  0.1859984476471818
  0.1923500368345762  0.5279689014751671  0.6859984476471818
  0.8076499631654237  0.0279689014751673  0.3140015523528182
  0.6923500368345763  0.9720310985248329  0.8140015523528182
  0.3076499631654310  0.0279689014751673  0.1859984476471818
  0.1923500368345762  0.9720310985248329  0.6859984476471818
  0.6923500368345763  0.5279689014751671  0.8140015523528182
  0.8076499631654237  0.4720310985248327  0.3140015523528182

  0.00000000E+00  0.00000000E+00  0.00000000E+00
  0.00000000E+00  0.00000000E+00  0.00000000E+00
  0.00000000E+00  0.00000000E+00  0.00000000E+00
  0.00000000E+00  0.00000000E+00  0.00000000E+00
  0.00000000E+00  0.00000000E+00  0.00000000E+00
  0.00000000E+00  0.00000000E+00  0.00000000E+00
  0.00000000E+00  0.00000000E+00  0.00000000E+00
  0.00000000E+00  0.00000000E+00  0.00000000E+00
  0.00000000E+00  0.00000000E+00  0.00000000E+00
  0.00000000E+00  0.00000000E+00  0.00000000E+00
  0.00000000E+00  0.00000000E+00  0.00000000E+00
  0.00000000E+00  0.00000000E+00  0.00000000E+00
  0.00000000E+00  0.00000000E+00  0.00000000E+00
  0.00000000E+00  0.00000000E+00  0.00000000E+00
  0.00000000E+00  0.00000000E+00  0.00000000E+00
  0.00000000E+00  0.00000000E+00  0.00000000E+00
  0.00000000E+00  0.00000000E+00  0.00000000E+00
  0.00000000E+00  0.00000000E+00  0.00000000E+00
  0.00000000E+00  0.00000000E+00  0.00000000E+00
  0.00000000E+00  0.00000000E+00  0.00000000E+00
