Cs64 Pb64 Br191
1.0
16.840035 0.000000 16.155961
0.000000 23.527616 0.000000
-16.840035 0.000000 16.155961
Cs Pb Br Cs Pb Br
56 56 168 8 8 23
direct
0.885617 0.874681 0.353634 Cs
0.135928 0.875090 0.603756 Cs
0.886331 0.374913 0.353831 Cs
0.135943 0.374755 0.603600 Cs
0.886223 0.875094 0.853653 Cs
0.135720 0.875042 0.103194 Cs
0.385956 0.876990 0.353957 Cs
0.634441 0.873628 0.603514 Cs
0.886035 0.374831 0.853627 Cs
0.136136 0.374767 0.104235 Cs
0.386173 0.875013 0.853033 Cs
0.635901 0.875103 0.103781 Cs
0.385597 0.374028 0.853201 Cs
0.638150 0.374330 0.102575 Cs
0.103615 0.124903 0.386004 Cs
0.353334 0.124537 0.635925 Cs
0.102972 0.625172 0.386190 Cs
0.103338 0.124863 0.885952 Cs
0.353591 0.124650 0.135579 Cs
0.603179 0.124723 0.385882 Cs
0.853834 0.124742 0.636332 Cs
0.103568 0.625081 0.885949 Cs
0.353882 0.625429 0.136072 Cs
0.853285 0.624947 0.635456 Cs
0.603615 0.124959 0.886003 Cs
0.853714 0.124821 0.135842 Cs
0.605846 0.625840 0.886664 Cs
0.853075 0.625218 0.136923 Cs
0.896657 0.875135 0.113914 Cs
0.146017 0.875116 0.363808 Cs
0.896704 0.374768 0.113814 Cs
0.146129 0.374525 0.364139 Cs
0.896809 0.875196 0.614176 Cs
0.146126 0.875082 0.863888 Cs
0.396445 0.875559 0.113427 Cs
0.645803 0.875581 0.363560 Cs
0.897196 0.374649 0.614221 Cs
0.146247 0.374783 0.863845 Cs
0.392839 0.374717 0.113536 Cs
0.397045 0.874401 0.614173 Cs
0.645921 0.875126 0.863830 Cs
0.646711 0.374647 0.864004 Cs
0.113484 0.124589 0.146051 Cs
0.363028 0.123206 0.396799 Cs
0.113992 0.624897 0.146199 Cs
0.113852 0.124793 0.646404 Cs
0.363966 0.124899 0.896466 Cs
0.614193 0.124988 0.146105 Cs
0.864257 0.124803 0.396436 Cs
0.113540 0.624999 0.646289 Cs
0.362340 0.625905 0.896487 Cs
0.613988 0.627734 0.146460 Cs
0.864719 0.624985 0.396615 Cs
0.613955 0.124826 0.646259 Cs
0.864112 0.124815 0.896489 Cs
0.863886 0.625114 0.895975 Cs
0.750554 0.751285 0.249251 Pb
0.000136 0.750309 0.500070 Pb
0.750273 0.249596 0.249899 Pb
0.000027 0.249581 0.500047 Pb
0.750168 0.750555 0.750092 Pb
0.999981 0.749823 0.999997 Pb
0.249645 0.750463 0.249684 Pb
0.499610 0.747859 0.496333 Pb
0.750261 0.249397 0.750200 Pb
0.999991 0.249842 0.999914 Pb
0.249736 0.750293 0.750065 Pb
0.499764 0.750281 0.999528 Pb
0.249813 0.249508 0.750171 Pb
0.499940 0.250194 0.000158 Pb
0.000290 0.750019 0.249988 Pb
0.249839 0.750372 0.500117 Pb
0.999803 0.249647 0.249870 Pb
0.999957 0.749862 0.750002 Pb
0.249793 0.750327 0.999996 Pb
0.498634 0.751312 0.249321 Pb
0.750844 0.751359 0.500949 Pb
0.999965 0.249747 0.750012 Pb
0.249714 0.249538 0.999666 Pb
0.750249 0.249018 0.499991 Pb
0.499945 0.749491 0.749459 Pb
0.750297 0.750458 0.999887 Pb
0.499926 0.249816 0.749882 Pb
0.750199 0.249591 0.999891 Pb
0.999950 0.999899 0.249992 Pb
0.249842 0.999417 0.500219 Pb
0.000139 0.499776 0.249983 Pb
0.000006 0.999846 0.750010 Pb
0.249861 0.999810 0.999843 Pb
0.499884 0.000560 0.249714 Pb
0.750016 0.000335 0.500102 Pb
0.999957 0.499925 0.750035 Pb
0.249601 0.500060 0.999746 Pb
0.750607 0.498107 0.500514 Pb
0.499954 0.000101 0.749933 Pb
0.750051 0.999942 0.999953 Pb
0.499514 0.500388 0.751346 Pb
0.750591 0.500079 0.000110 Pb
0.750177 0.000463 0.250004 Pb
0.999986 0.999868 0.499974 Pb
0.750595 0.499493 0.249457 Pb
0.000026 0.499640 0.500083 Pb
0.749983 0.999753 0.749947 Pb
0.999939 0.999808 0.999925 Pb
0.249713 0.999628 0.249707 Pb
0.500105 0.999462 0.500143 Pb
0.750306 0.499693 0.750082 Pb
0.999999 0.499904 0.999921 Pb
0.249943 0.999892 0.750033 Pb
0.499997 0.000186 0.999932 Pb
0.249635 0.499755 0.750139 Pb
0.499613 0.500313 0.997571 Pb
0.984067 0.124885 0.230456 Br
0.233601 0.124106 0.481740 Br
0.984388 0.624680 0.230852 Br
0.233935 0.624692 0.480781 Br
0.984397 0.124859 0.730692 Br
0.234160 0.124828 0.980281 Br
0.484725 0.126376 0.229888 Br
0.733678 0.124839 0.479603 Br
0.983949 0.624762 0.730300 Br
0.233792 0.624907 0.981302 Br
0.484713 0.623744 0.234902 Br
0.484270 0.125333 0.730028 Br
0.734130 0.125024 0.980447 Br
0.734900 0.624941 0.981373 Br
0.229856 0.874604 0.233848 Br
0.483090 0.872388 0.486008 Br
0.233016 0.374489 0.235933 Br
0.230469 0.874819 0.734315 Br
0.480695 0.874962 0.983733 Br
0.731278 0.875619 0.234247 Br
0.980290 0.874863 0.483991 Br
0.231193 0.374843 0.734077 Br
0.479267 0.375898 0.984736 Br
0.730976 0.375346 0.233452 Br
0.981123 0.374786 0.484189 Br
0.729571 0.874867 0.733881 Br
0.980679 0.874726 0.984298 Br
0.980566 0.374962 0.984205 Br
0.769756 0.125492 0.265857 Br
0.019526 0.124786 0.515644 Br
0.764775 0.625360 0.268288 Br
0.018293 0.624770 0.515643 Br
0.769532 0.124712 0.765909 Br
0.019026 0.124886 0.015499 Br
0.269856 0.124212 0.265236 Br
0.518488 0.124157 0.515604 Br
0.768302 0.624810 0.764870 Br
0.019603 0.624733 0.015662 Br
0.269688 0.124821 0.765797 Br
0.519180 0.125663 0.015886 Br
0.267892 0.624748 0.766514 Br
0.519798 0.624325 0.015784 Br
0.015298 0.874790 0.269527 Br
0.266405 0.874354 0.520311 Br
0.015685 0.374867 0.269452 Br
0.015542 0.874755 0.769141 Br
0.265689 0.874878 0.019593 Br
0.515147 0.875723 0.267255 Br
0.765373 0.875334 0.520437 Br
0.015449 0.374944 0.769192 Br
0.264621 0.374940 0.018568 Br
0.766901 0.374070 0.519175 Br
0.515734 0.874380 0.766961 Br
0.765720 0.875002 0.019886 Br
0.515967 0.375750 0.768683 Br
0.766505 0.375048 0.018687 Br
0.873811 0.982070 0.224561 Br
0.123907 0.981781 0.474575 Br
0.873852 0.482357 0.224359 Br
0.124419 0.482190 0.474245 Br
0.873792 0.981976 0.724566 Br
0.123919 0.982017 0.974482 Br
0.373935 0.982198 0.224413 Br
0.623779 0.982019 0.474575 Br
0.873573 0.482112 0.724419 Br
0.123973 0.481996 0.974589 Br
0.376066 0.481657 0.228466 Br
0.373956 0.981914 0.724326 Br
0.623806 0.982054 0.974560 Br
0.623378 0.481785 0.974819 Br
0.974545 0.017851 0.373878 Br
0.224460 0.017823 0.623959 Br
0.974513 0.517755 0.373872 Br
0.224431 0.517635 0.623705 Br
0.974511 0.017822 0.873878 Br
0.224475 0.017945 0.123884 Br
0.474600 0.017520 0.373859 Br
0.724391 0.018052 0.623830 Br
0.974487 0.517957 0.873895 Br
0.225425 0.517493 0.124272 Br
0.474568 0.017895 0.873777 Br
0.724505 0.018031 0.123941 Br
0.474511 0.518238 0.873872 Br
0.723401 0.518609 0.124133 Br
0.025522 0.767827 0.126139 Br
0.275443 0.768388 0.376071 Br
0.025395 0.267946 0.126091 Br
0.025531 0.767930 0.626044 Br
0.275541 0.768012 0.876075 Br
0.524851 0.767809 0.124930 Br
0.773492 0.766358 0.376269 Br
0.025443 0.267855 0.626038 Br
0.275441 0.267819 0.876176 Br
0.524843 0.271224 0.126491 Br
0.775846 0.267763 0.376063 Br
0.526046 0.761000 0.623809 Br
0.775471 0.768015 0.876148 Br
0.775397 0.267819 0.876080 Br
0.125955 0.231850 0.275063 Br
0.375966 0.231692 0.525278 Br
0.126218 0.731879 0.275586 Br
0.126139 0.232023 0.775520 Br
0.376119 0.232219 0.025504 Br
0.625943 0.232106 0.275486 Br
0.875839 0.231722 0.525534 Br
0.126043 0.732080 0.775429 Br
0.376112 0.731876 0.025248 Br
0.876224 0.733004 0.525699 Br
0.625934 0.232067 0.775193 Br
0.875950 0.231989 0.025484 Br
0.625938 0.731818 0.775290 Br
0.876033 0.731829 0.025659 Br
0.874085 0.767752 0.224354 Br
0.124103 0.767999 0.474472 Br
0.873748 0.268022 0.224471 Br
0.123745 0.267705 0.474696 Br
0.873734 0.767923 0.724413 Br
0.123914 0.767954 0.974424 Br
0.373454 0.767911 0.222426 Br
0.624020 0.765310 0.472507 Br
0.873806 0.267804 0.724513 Br
0.123882 0.267895 0.974498 Br
0.373823 0.266560 0.223423 Br
0.373881 0.767574 0.724379 Br
0.623863 0.767874 0.974594 Br
0.623760 0.268176 0.974680 Br
0.974547 0.232014 0.373848 Br
0.224405 0.232052 0.624220 Br
0.974422 0.732111 0.373893 Br
0.224274 0.731956 0.623850 Br
0.974435 0.232044 0.873877 Br
0.224030 0.231828 0.123705 Br
0.473476 0.229897 0.373649 Br
0.724460 0.231880 0.623825 Br
0.974489 0.731963 0.873871 Br
0.224354 0.731983 0.123902 Br
0.474620 0.232365 0.873919 Br
0.724439 0.232104 0.123911 Br
0.474841 0.731199 0.873078 Br
0.724891 0.732156 0.123949 Br
0.126102 0.017983 0.275399 Br
0.376192 0.017260 0.525428 Br
0.126686 0.517432 0.276085 Br
0.126126 0.017894 0.775430 Br
0.376155 0.017875 0.025296 Br
0.625959 0.017947 0.275379 Br
0.875976 0.018036 0.525425 Br
0.126210 0.517703 0.775443 Br
0.376550 0.518037 0.025367 Br
0.875867 0.516279 0.525769 Br
0.625939 0.018013 0.775418 Br
0.876017 0.017872 0.025405 Br
0.625415 0.518181 0.775399 Br
0.875806 0.518182 0.025812 Br
0.025400 0.982019 0.126103 Br
0.274931 0.982170 0.376138 Br
0.025573 0.481965 0.126186 Br
0.025406 0.982015 0.626042 Br
0.275568 0.981879 0.876108 Br
0.525474 0.982358 0.126005 Br
0.775317 0.981867 0.376101 Br
0.025535 0.481966 0.626018 Br
0.275788 0.482033 0.876060 Br
0.525048 0.481360 0.129447 Br
0.775171 0.482645 0.376123 Br
0.525551 0.982175 0.625966 Br
0.775330 0.981842 0.876079 Br
0.775325 0.482217 0.876286 Br
0.378377 0.366549 0.349850 Cs
0.638835 0.372903 0.604535 Cs
0.627615 0.631202 0.381337 Cs
0.350207 0.625365 0.636708 Cs
0.392722 0.373248 0.613369 Cs
0.650130 0.372276 0.364269 Cs
0.615533 0.625777 0.646917 Cs
0.361731 0.629676 0.396304 Cs
0.249269 0.248315 0.249182 Pb
0.499601 0.249486 0.499570 Pb
0.500162 0.250070 0.250104 Pb
0.249380 0.248806 0.500472 Pb
0.502688 0.498137 0.245441 Pb
0.249709 0.499977 0.499875 Pb
0.249829 0.500267 0.250264 Pb
0.500439 0.496189 0.504552 Pb
0.483581 0.623979 0.728679 Br
0.740637 0.624476 0.488797 Br
0.731108 0.374698 0.735131 Br
0.474517 0.374038 0.479527 Br
0.269334 0.624807 0.265019 Br
0.514359 0.376432 0.277753 Br
0.264491 0.374542 0.516590 Br
0.374435 0.481852 0.724454 Br
0.622712 0.480933 0.472637 Br
0.723137 0.515760 0.623890 Br
0.523927 0.270393 0.625451 Br
0.271706 0.263296 0.376053 Br
0.625676 0.736811 0.271535 Br
0.376422 0.730785 0.525310 Br
0.373947 0.267772 0.724741 Br
0.623509 0.268125 0.475022 Br
0.468647 0.740662 0.371311 Br
0.724021 0.732937 0.624082 Br
0.626055 0.516723 0.276595 Br
0.377144 0.517445 0.527437 Br
0.528799 0.485735 0.622973 Br
0.279999 0.484085 0.376352 Br
0.510575 0.618694 0.478857 Br
