Cs64 Pb64 Br191
1.0
16.840035 0.000000 16.155961
0.000000 23.527616 0.000000
-16.840035 0.000000 16.155961
Cs Pb Br Cs Pb Br
56 56 168 8 8 23
direct
0.887792 0.877489 0.353613 Cs
0.136292 0.875233 0.604043 Cs
0.889058 0.373832 0.353926 Cs
0.135854 0.376174 0.602695 Cs
0.887834 0.877113 0.854485 Cs
0.135910 0.875287 0.103674 Cs
0.385634 0.875029 0.353869 Cs
0.636176 0.874735 0.603112 Cs
0.889247 0.374184 0.854140 Cs
0.135959 0.375062 0.103733 Cs
0.385410 0.875547 0.854137 Cs
0.636068 0.875083 0.103534 Cs
0.385664 0.374961 0.858019 Cs
0.634428 0.374884 0.102308 Cs
0.103378 0.124986 0.386322 Cs
0.353879 0.125534 0.636306 Cs
0.103119 0.625218 0.388701 Cs
0.103653 0.125239 0.886665 Cs
0.352363 0.125123 0.135752 Cs
0.606348 0.124459 0.386734 Cs
0.853286 0.126017 0.635290 Cs
0.103619 0.625257 0.885955 Cs
0.354019 0.625134 0.136163 Cs
0.866245 0.629225 0.632251 Cs
0.603009 0.125088 0.886199 Cs
0.856882 0.124380 0.135668 Cs
0.599448 0.625717 0.889823 Cs
0.856912 0.626210 0.138098 Cs
0.896173 0.875011 0.114011 Cs
0.146528 0.875004 0.364111 Cs
0.894050 0.375946 0.114313 Cs
0.146329 0.378645 0.367984 Cs
0.893583 0.875497 0.613211 Cs
0.147093 0.875365 0.864405 Cs
0.395413 0.875081 0.114052 Cs
0.649140 0.875952 0.363942 Cs
0.897312 0.375275 0.611679 Cs
0.146949 0.374869 0.864061 Cs
0.396392 0.375443 0.115415 Cs
0.396688 0.874840 0.615677 Cs
0.646460 0.877999 0.865262 Cs
0.647201 0.374688 0.867627 Cs
0.114317 0.125132 0.146333 Cs
0.363751 0.124988 0.395945 Cs
0.114222 0.625262 0.148604 Cs
0.114020 0.125416 0.646643 Cs
0.363592 0.124756 0.896906 Cs
0.611559 0.122501 0.143698 Cs
0.864761 0.125297 0.399521 Cs
0.114593 0.624629 0.645438 Cs
0.362718 0.624655 0.896715 Cs
0.613798 0.625603 0.147365 Cs
0.871559 0.624981 0.389494 Cs
0.613742 0.124857 0.647048 Cs
0.864486 0.125240 0.896324 Cs
0.863909 0.627941 0.893023 Cs
0.750332 0.750486 0.249876 Pb
0.000651 0.752058 0.500100 Pb
0.753216 0.246994 0.246916 Pb
0.000311 0.250371 0.500154 Pb
0.750869 0.753167 0.750537 Pb
0.000244 0.750182 0.000237 Pb
0.249702 0.750611 0.249791 Pb
0.501722 0.749992 0.500480 Pb
0.750109 0.250857 0.750070 Pb
0.000151 0.250480 0.000251 Pb
0.249984 0.750475 0.750247 Pb
0.499782 0.750812 0.000829 Pb
0.249902 0.250354 0.750169 Pb
0.499646 0.250074 0.000639 Pb
0.000733 0.751026 0.249951 Pb
0.251556 0.750516 0.500490 Pb
0.001543 0.249992 0.250262 Pb
0.000918 0.751839 0.750617 Pb
0.249889 0.750324 0.000118 Pb
0.500044 0.750212 0.250420 Pb
0.750093 0.748880 0.496827 Pb
0.000081 0.250330 0.749929 Pb
0.249939 0.250437 0.000229 Pb
0.750089 0.253400 0.500094 Pb
0.499700 0.750737 0.753257 Pb
0.750117 0.750507 0.000023 Pb
0.499632 0.250142 0.752664 Pb
0.750368 0.249923 0.999860 Pb
0.000228 0.000452 0.250058 Pb
0.249928 0.000216 0.500086 Pb
0.001767 0.499564 0.250144 Pb
0.000086 0.000806 0.749924 Pb
0.249920 0.000349 0.000074 Pb
0.499980 0.999408 0.250166 Pb
0.750104 0.000594 0.500103 Pb
1.000066 0.500019 0.750501 Pb
0.249622 0.500247 0.000256 Pb
0.734190 0.500337 0.489646 Pb
0.499798 0.000553 0.750265 Pb
0.750248 0.000713 0.000164 Pb
0.499583 0.497606 0.753324 Pb
0.749857 0.502469 0.002939 Pb
0.750331 0.000211 0.249822 Pb
0.000236 0.000598 0.500335 Pb
0.750328 0.499157 0.249632 Pb
0.996332 0.500976 0.501642 Pb
0.750261 0.001135 0.750159 Pb
0.000245 0.000343 0.000168 Pb
0.249942 0.000438 0.250089 Pb
0.500155 0.001176 0.500332 Pb
0.750529 0.498669 0.755135 Pb
0.000179 0.500726 0.000108 Pb
0.249939 0.000624 0.750062 Pb
0.499543 -0.000047 0.000089 Pb
0.249918 0.499920 0.750599 Pb
0.499684 0.500690 0.003312 Pb
0.985678 0.125460 0.231314 Br
0.234476 0.125343 0.480572 Br
0.984472 0.625395 0.235616 Br
0.234009 0.626392 0.481073 Br
0.983373 0.125932 0.730158 Br
0.234197 0.125542 0.981424 Br
0.482146 0.123744 0.230057 Br
0.735765 0.127440 0.484356 Br
0.987293 0.626024 0.733769 Br
0.233884 0.625366 0.981272 Br
0.484546 0.624632 0.231561 Br
0.484035 0.125073 0.732349 Br
0.734519 0.126018 0.978663 Br
0.734173 0.625859 0.976815 Br
0.230463 0.875553 0.234399 Br
0.482830 0.867309 0.486510 Br
0.228481 0.375323 0.235839 Br
0.231316 0.875474 0.734468 Br
0.480166 0.875198 0.984553 Br
0.731372 0.874958 0.233104 Br
0.980465 0.876226 0.485143 Br
0.230234 0.375550 0.733299 Br
0.482781 0.375679 0.986830 Br
0.738000 0.373896 0.225349 Br
0.984541 0.375759 0.484154 Br
0.730109 0.876178 0.733804 Br
0.981135 0.875461 0.985221 Br
0.980058 0.375836 0.985794 Br
0.775174 0.124302 0.266428 Br
0.018377 0.125724 0.516435 Br
0.768219 0.623961 0.265630 Br
0.013771 0.626346 0.517594 Br
0.769888 0.126576 0.765416 Br
0.018704 0.125688 0.016295 Br
0.269099 0.125468 0.265869 Br
0.518636 0.122426 0.514901 Br
0.769048 0.624872 0.757082 Br
0.020699 0.625530 0.016719 Br
0.269688 0.125628 0.765820 Br
0.517126 0.125038 0.014773 Br
0.267487 0.625324 0.767048 Br
0.517560 0.625866 0.019282 Br
0.016897 0.875726 0.268952 Br
0.267327 0.875592 0.520669 Br
0.017794 0.375169 0.269711 Br
0.016982 0.876221 0.770184 Br
0.265339 0.875429 0.019161 Br
0.516269 0.874350 0.272608 Br
0.763546 0.875067 0.516594 Br
0.016980 0.375755 0.769550 Br
0.266177 0.375538 0.019771 Br
0.760733 0.380001 0.527276 Br
0.514853 0.875042 0.769790 Br
0.765356 0.875692 0.018870 Br
0.516406 0.374130 0.777389 Br
0.764077 0.376741 0.017794 Br
0.874045 0.981845 0.224471 Br
0.124028 0.982048 0.474775 Br
0.874517 0.483200 0.226990 Br
0.125906 0.487516 0.480148 Br
0.873808 0.982229 0.724630 Br
0.123841 0.982344 0.974608 Br
0.374082 0.981628 0.225033 Br
0.623628 0.982456 0.474649 Br
0.871198 0.483437 0.721262 Br
0.123639 0.482017 0.974342 Br
0.374117 0.482125 0.227754 Br
0.374013 0.982438 0.724658 Br
0.623787 0.983658 0.976241 Br
0.624424 0.484218 0.976998 Br
0.974646 0.018217 0.374140 Br
0.224548 0.018285 0.623947 Br
0.977907 0.514713 0.374613 Br
0.227947 0.518430 0.624601 Br
0.974684 0.018302 0.873930 Br
0.224551 0.017930 0.124046 Br
0.474540 0.017638 0.374564 Br
0.724411 0.017712 0.624037 Br
0.972985 0.518261 0.874073 Br
0.224384 0.517833 0.124066 Br
0.474520 0.017726 0.873963 Br
0.725105 0.018463 0.123951 Br
0.474245 0.517803 0.877305 Br
0.726878 0.520504 0.123305 Br
0.025705 0.767833 0.126157 Br
0.275666 0.768066 0.376367 Br
0.025497 0.268060 0.126235 Br
0.024572 0.768263 0.626463 Br
0.275440 0.768067 0.876185 Br
0.524752 0.768637 0.127366 Br
0.776888 0.771721 0.374265 Br
0.025853 0.268333 0.626195 Br
0.275050 0.267996 0.876249 Br
0.525145 0.267628 0.126595 Br
0.777586 0.266716 0.375740 Br
0.527923 0.764436 0.627537 Br
0.778628 0.768485 0.875269 Br
0.775683 0.270293 0.876072 Br
0.126460 0.231825 0.276083 Br
0.376228 0.232282 0.524760 Br
0.126268 0.732138 0.276341 Br
0.125684 0.232001 0.775579 Br
0.375968 0.232623 0.025816 Br
0.626796 0.224449 0.269468 Br
0.875792 0.235545 0.526193 Br
0.126183 0.732749 0.775415 Br
0.376094 0.732433 0.025856 Br
0.876494 0.735928 0.521894 Br
0.626275 0.232146 0.775612 Br
0.875978 0.232443 0.025466 Br
0.626671 0.738943 0.785952 Br
0.875980 0.731925 0.025489 Br
0.874144 0.767904 0.224917 Br
0.126206 0.768220 0.475970 Br
0.875188 0.266867 0.222938 Br
0.123940 0.267583 0.474517 Br
0.873698 0.768830 0.725460 Br
0.123886 0.768174 0.974557 Br
0.374186 0.768121 0.225413 Br
0.624085 0.767085 0.472074 Br
0.873558 0.271011 0.724694 Br
0.123782 0.268230 0.974625 Br
0.374173 0.267811 0.224949 Br
0.374694 0.767699 0.725242 Br
0.623811 0.768417 0.974824 Br
0.623889 0.266817 0.975883 Br
0.974493 0.232245 0.374100 Br
0.225195 0.232536 0.623934 Br
0.977626 0.735627 0.374258 Br
0.225089 0.732029 0.624162 Br
0.974609 0.232409 0.873921 Br
0.224447 0.232455 0.124049 Br
0.474826 0.232006 0.374374 Br
0.723919 0.232496 0.623924 Br
0.975318 0.733052 0.874030 Br
0.224438 0.732441 0.124053 Br
0.473703 0.231385 0.875250 Br
0.725278 0.227973 0.123380 Br
0.472081 0.732471 0.875493 Br
0.725352 0.731637 0.123047 Br
0.126208 0.018055 0.275735 Br
0.376475 0.017737 0.525743 Br
0.126409 0.519286 0.276996 Br
0.126076 0.018505 0.775558 Br
0.375938 0.017884 0.025723 Br
0.626304 0.018276 0.275216 Br
0.875954 0.017619 0.526050 Br
0.124717 0.517807 0.774941 Br
0.375915 0.517767 0.026095 Br
0.871063 0.514966 0.522058 Br
0.626200 0.018295 0.775624 Br
0.876068 0.017828 0.025219 Br
0.626881 0.517672 0.781231 Br
0.875860 0.519995 0.025430 Br
0.025372 0.982408 0.126187 Br
0.275546 0.982016 0.376301 Br
0.025466 0.482475 0.126119 Br
0.025429 0.982085 0.626219 Br
0.275362 0.982450 0.876136 Br
0.524943 0.981353 0.126432 Br
0.775767 0.983449 0.376258 Br
0.024139 0.482745 0.626945 Br
0.274842 0.482034 0.876509 Br
0.524627 0.482409 0.129680 Br
0.772952 0.476428 0.376945 Br
0.525597 0.981994 0.626009 Br
0.775538 0.982401 0.876054 Br
0.777894 0.482799 0.871681 Br
0.386418 0.375446 0.357109 Cs
0.629034 0.365725 0.602842 Cs
0.606290 0.624631 0.382441 Cs
0.353210 0.624026 0.639042 Cs
0.389981 0.375107 0.614341 Cs
0.649260 0.357992 0.347511 Cs
0.621378 0.634900 0.672940 Cs
0.360181 0.624685 0.392558 Cs
0.249934 0.250447 0.250201 Pb
0.499453 0.250148 0.499646 Pb
0.499484 0.248106 0.249575 Pb
0.249733 0.250010 0.499701 Pb
0.499966 0.500315 0.253926 Pb
0.253830 0.502414 0.500461 Pb
0.249813 0.499638 0.249889 Pb
0.513807 0.497685 0.503785 Pb
0.483628 0.624055 0.736130 Br
0.742487 0.625755 0.463963 Br
0.725399 0.376885 0.732436 Br
0.481363 0.375306 0.488964 Br
0.267176 0.625403 0.263430 Br
0.513149 0.373796 0.269000 Br
0.264179 0.376139 0.515907 Br
0.374055 0.481608 0.728341 Br
0.621475 0.458287 0.448493 Br
0.478589 0.524949 0.379529 Br
0.520863 0.263107 0.626821 Br
0.275666 0.268003 0.376185 Br
0.626320 0.733013 0.274716 Br
0.379195 0.728365 0.525797 Br
0.373900 0.268797 0.727045 Br
0.623605 0.266544 0.472801 Br
0.475784 0.727988 0.376409 Br
0.728772 0.732343 0.622653 Br
0.626707 0.516798 0.272149 Br
0.383380 0.523767 0.522633 Br
0.518896 0.469821 0.630556 Br
0.275618 0.483116 0.376222 Br
0.611165 0.573715 0.542784 Br
