Cs Pb Br                                
   1.0000000000000000     
     8.4200180000000007    0.0000000000000000    8.0779809999999994
     0.0000000000000000   11.7638079999999992    0.0000000000000000
    -8.4200180000000007    0.0000000000000000    8.0779809999999994
   Cs   Pb   Br
     8     8    24
Selective dynamics
Direct
  0.2721250000000026  0.2500000000000000  0.2082359999999994   F   F   F
  0.7479792539966255  0.2395640583198926  0.7880086815863763   T   T   T
  0.7375521518344499  0.6730476089279520  0.2317823814405386   T   T   T
  0.2355342462766146  0.6781115166729137  0.7135641283039860   T   T   T
  0.2736349402436957  0.1353882443012751  0.7514889429951097   T   T   T
  0.7368152586216112  0.1756488190396581  0.1957968230343994   T   T   T
  0.7612070135868763  0.7025371005203525  0.7461358921073256   T   T   T
  0.2208680289430305  0.7360057666766835  0.2452692565084433   T   T   T
  0.0081891359687205  0.9367245412275196  0.9824043030341230   T   T   T
  0.4763834123418675  0.9717707855330602  0.4998032058013351   T   T   T
  0.4916241435016673  0.9326802241490313  0.0188960139735954   T   T   T
  0.9607671207469579  0.9880020410615060  0.4653429039948236   T   T   T
  0.5074615960426456  0.4584322875754623  0.0550797267058840   T   T   T
  0.9502115684661803  0.4429891582938410  0.5045248963807865   T   T   T
  0.0013773631421188  0.4455261105755781  0.9892612007573476   T   T   T
  0.4681671481964074  0.4752246424316269  0.5210942388492938   T   T   T
  0.4836101676496369  0.6953575068208337  0.0487686471713360   T   T   T
  0.0408727742350834  0.6738866298400410  0.4535645193656777   T   T   T
  0.9950328269357556  0.1832127660735381  0.0595934876198498   T   T   T
  0.5333660182012565  0.2317527254695051  0.5785166607695160   T   T   T
  0.9651851525259403  0.6876309116905546  0.9535731317157143   T   T   T
  0.4187892509297058  0.7291354671283727  0.4638944482401968   T   T   T
  0.4773390691235448  0.2052894056163979  0.9605005023606026   T   T   T
  0.8500392051033856  0.2142221638129840  0.4686805439868635   T   T   T
  0.2345081143348082  0.5125747439923458  0.0328793350914864   T   T   T
  0.7231176372189623  0.5396628708916253  0.5136595227830085   T   T   T
  0.5425272892763431  0.4119865160072962  0.2814735494353329   T   T   T
  0.0648826619965845  0.3524773671504207  0.7727277186151085   T   T   T
  0.4824561494704298  0.8951583841645174  0.7342580056709167   T   T   T
  0.9599647867556698  0.8976242859518706  0.2305932338606880   T   T   T
  0.7279622671157142  0.9854029013861236  0.9687388608971261   T   T   T
  0.2266597802879105  0.0477769072117482  0.4273930001649049   T   T   T
  0.2538642093796781  0.9499793807456669  0.0401060723799134   T   T   T
  0.7052004832153997  0.8897058098364212  0.4688031092335549   T   T   T
  0.4844876355138226  0.9910837211750803  0.2600459546375404   T   T   T
  0.0045606265936016  0.9325695445718623  0.6974007049978326   T   T   T
  0.7336399045161244  0.4664594152849801  0.0026424422634079   T   T   T
  0.2239036986256693  0.3872621514522976  0.4966643808341331   T   T   T
  0.4715627930938169  0.5224797564486749  0.7620804201215918   T   T   T
  0.9995015988224409  0.4315804842484354  0.2651738131430221   T   T   T

  0.00000000E+00  0.00000000E+00  0.00000000E+00
  0.00000000E+00  0.00000000E+00  0.00000000E+00
  0.00000000E+00  0.00000000E+00  0.00000000E+00
  0.00000000E+00  0.00000000E+00  0.00000000E+00
  0.00000000E+00  0.00000000E+00  0.00000000E+00
  0.00000000E+00  0.00000000E+00  0.00000000E+00
  0.00000000E+00  0.00000000E+00  0.00000000E+00
  0.00000000E+00  0.00000000E+00  0.00000000E+00
  0.00000000E+00  0.00000000E+00  0.00000000E+00
  0.00000000E+00  0.00000000E+00  0.00000000E+00
  0.00000000E+00  0.00000000E+00  0.00000000E+00
  0.00000000E+00  0.00000000E+00  0.00000000E+00
  0.00000000E+00  0.00000000E+00  0.00000000E+00
  0.00000000E+00  0.00000000E+00  0.00000000E+00
  0.00000000E+00  0.00000000E+00  0.00000000E+00
  0.00000000E+00  0.00000000E+00  0.00000000E+00
  0.00000000E+00  0.00000000E+00  0.00000000E+00
  0.00000000E+00  0.00000000E+00  0.00000000E+00
  0.00000000E+00  0.00000000E+00  0.00000000E+00
  0.00000000E+00  0.00000000E+00  0.00000000E+00
  0.00000000E+00  0.00000000E+00  0.00000000E+00
  0.00000000E+00  0.00000000E+00  0.00000000E+00
  0.00000000E+00  0.00000000E+00  0.00000000E+00
  0.00000000E+00  0.00000000E+00  0.00000000E+00
  0.00000000E+00  0.00000000E+00  0.00000000E+00
  0.00000000E+00  0.00000000E+00  0.00000000E+00
  0.00000000E+00  0.00000000E+00  0.00000000E+00
  0.00000000E+00  0.00000000E+00  0.00000000E+00
  0.00000000E+00  0.00000000E+00  0.00000000E+00
  0.00000000E+00  0.00000000E+00  0.00000000E+00
  0.00000000E+00  0.00000000E+00  0.00000000E+00
  0.00000000E+00  0.00000000E+00  0.00000000E+00
  0.00000000E+00  0.00000000E+00  0.00000000E+00
  0.00000000E+00  0.00000000E+00  0.00000000E+00
  0.00000000E+00  0.00000000E+00  0.00000000E+00
  0.00000000E+00  0.00000000E+00  0.00000000E+00
  0.00000000E+00  0.00000000E+00  0.00000000E+00
  0.00000000E+00  0.00000000E+00  0.00000000E+00
  0.00000000E+00  0.00000000E+00  0.00000000E+00
  0.00000000E+00  0.00000000E+00  0.00000000E+00
