Cs Pb Br 
 1.0000000000000000
     8.4200180000000007    0.0000000000000000    8.0779809999999994
     0.0000000000000000   11.7638079999999992    0.0000000000000000
    -8.4200180000000007    0.0000000000000000    8.0779809999999994
 Cs  Pb  Br 
   8   8  24
Selective dynamics
Cartesian
  0.5379465300020001  2.9409519999999998  3.8803470311410000   F   F   F
 -0.3370485008353810  2.8181855857759803 12.4076813598687465   T   T   T
  4.2585905705725979  7.9176028462875339  7.8302659424392500   T   T   T
 -4.0250202112083810  7.9771736847289221  7.6667986369929766   T   T   T
 -4.0235393045389429  1.5926813114172678  8.2809312514493012   T   T   T
  4.5553849659761889  2.0662989826093048  7.5336226759876892   T   T   T
  0.1268991141379807  8.2645115633981270 12.1762873526825217   T   T   T
 -0.2054587753228974  8.6582305260772667  3.7654481352686053   T   T   T
  0.2171087574363078 -0.7443603481113593 -0.0759860210104081   T   T   T
 -0.1971950824850202 -0.3320830589798612  7.8856169538150809   T   T   T
 -4.4396386402673169 -0.7919369177138420 12.2019531322021351   T   T   T
 -4.2485371773111371 -0.1411416853443045  3.4421086837736015   T   T   T
 -4.6109545173108319  5.3929094120385219 12.6221791168774722   T   T   T
 -4.6673281986808890  5.2112394042503940  3.6733525230410176   T   T   T
  0.1020183053706947  5.2410836237978771 -0.0756215029527881   T   T   T
 -0.4456470559849473  5.5904514504343092  7.9912346885888539   T   T   T
 -4.7586445704253437  8.1800522015989916 12.3785269509263269   T   T   T
  4.9451460775489586  7.9274729272052813 12.0720360633983983   T   T   T
 -0.5436019250519568  2.1552798032379910 16.5972323310801961   T   T   T
 -0.3801692231363238  2.7262945658999929  8.9817671549549996   T   T   T
  0.0977734242384621  8.0891580199926381 -0.6562690363033454   T   T   T
 -0.3797865732478901  8.5774096412885132  7.1303021509042184   T   T   T
  4.3517900352382188  2.4149851521054049  3.5368597394970731   T   T   T
 -5.2089712089430256  2.5200684044404618  2.5746120774758050   T   T   T
 -6.7223000494531808  6.0298308739751372 10.2379317361040929   T   T   T
  1.7636410937967872  6.3484903978978604  9.9906623997298922   T   T   T
  2.1980771884286248  4.8465302728987742  6.6562631190969874   T   T   T
  2.4599498820610122  4.1464760715030389 14.8441817399840144   T   T   T
 -2.1201761616414996 -1.2333366390983900  9.8285938276628162   T   T   T
 -2.2786963959362780 -1.2043282439250789  1.5393240699365440   T   T   T
  6.3926747463818199 11.5920905345493210  5.6279384747663332   T   T   T
 -1.6901773245622480 12.3258463632728592  5.2834259334950611   T   T   T
 -6.6201706388155372 -0.5884329609490654 10.4526673506186487   T   T   T
  1.9904701440798576 -1.2974796765997896  9.4835787137343832   T   T   T
  1.8898029929285556 11.6589186078291487  6.0143281951045005   T   T   T
  2.5862920687149655 10.9705690689908391 13.7484112993302787   T   T   T
  6.1550117901222334  5.4873390012047638  5.9476748079204818   T   T   T
 -2.2966498538875557  4.5556775953517716  5.8207352550827922   T   T   T
 -2.4461636488911287  6.1463515387489638  9.9653464371330518   T   T   T
 -2.2369648266791438  5.0770299532456553  2.1380429490241566   T   T   T
