Cs8 Pb8 Br23                            
   1.0000000000000000     
     8.4564889999999995    0.0000000000000000    8.0403009999999995
     0.0000000000000000   11.7298469999999995    0.0000000000000000
    -8.4564889999999995    0.0000000000000000    8.0403009999999995
   Cs   Pb   Br
     8     8    23
Direct
  0.2720290000000034  0.2496999999999971  0.1866830000000022
  0.7711940000000013  0.2539340000000010  0.7534780000000012
  0.7063800000000029  0.7492209999999986  0.2505469999999974
  0.2116430000000022  0.7467200000000034  0.7844559999999987
  0.2735800000000026  0.2555630000000022  0.7456219999999973
  0.8025810000000035  0.2498480000000001  0.2170589999999990
  0.7239730000000009  0.7496500000000026  0.7824189999999973
  0.2412989999999979  0.7432310000000015  0.2873909999999995
  0.0048469999999980  0.9959479999999985  0.9995600000000024
  0.4914079999999998  0.0297290000000032  0.4954869999999971
  0.5036199999999980  0.0017089999999982  0.9955900000000000
  0.0248059999999981  0.9951950000000025  0.5027990000000031
  0.5039909999999992  0.4995540000000034  0.9962260000000001
  0.0022960000000012  0.4969960000000029  0.5006169999999983
  0.0040989999999965  0.5029650000000032  0.0007129999999975
  0.4916860000000014  0.4876849999999990  0.4969609999999989
  0.4810919999999967  0.7508780000000002  0.9723710000000025
  0.9658039999999986  0.7530470000000022  0.4548839999999998
  0.9947000000000017  0.2495929999999973  0.9740579999999994
  0.3972580000000008  0.2458609999999979  0.4718859999999978
  0.0338959999999986  0.7497029999999967  0.0416809999999970
  0.5502630000000011  0.7348420000000004  0.5116390000000024
  0.5375579999999971  0.2502220000000008  0.0255429999999990
  0.0130690000000016  0.2481569999999991  0.5486509999999996
  0.2517640000000014  0.4785120000000020  0.9532740000000004
  0.4590260000000015  0.5217320000000001  0.2450150000000022
  0.9488640000000004  0.5358080000000029  0.7471329999999980
  0.5493319999999997  0.0338479999999990  0.7456150000000008
  0.0545570000000026  0.0363899999999973  0.2576800000000006
  0.7571119999999993  0.9771229999999989  0.0464640000000003
  0.2660290000000032  0.9444739999999996  0.5488209999999967
  0.2522099999999980  0.0237589999999983  0.9468079999999972
  0.4593449999999990  0.9746949999999970  0.2477829999999983
  0.9539180000000016  0.9604619999999997  0.7487459999999970
  0.7568350000000024  0.5227229999999992  0.0467990000000000
  0.2396870000000035  0.5386280000000028  0.5532990000000026
  0.5436819999999969  0.4674720000000008  0.7476860000000016
  0.0531900000000007  0.4615560000000016  0.2542979999999986
  0.7036060000000006  0.2847500000000025  0.4639680000000013

  0.00000000E+00  0.00000000E+00  0.00000000E+00
  0.00000000E+00  0.00000000E+00  0.00000000E+00
  0.00000000E+00  0.00000000E+00  0.00000000E+00
  0.00000000E+00  0.00000000E+00  0.00000000E+00
  0.00000000E+00  0.00000000E+00  0.00000000E+00
  0.00000000E+00  0.00000000E+00  0.00000000E+00
  0.00000000E+00  0.00000000E+00  0.00000000E+00
  0.00000000E+00  0.00000000E+00  0.00000000E+00
  0.00000000E+00  0.00000000E+00  0.00000000E+00
  0.00000000E+00  0.00000000E+00  0.00000000E+00
  0.00000000E+00  0.00000000E+00  0.00000000E+00
  0.00000000E+00  0.00000000E+00  0.00000000E+00
  0.00000000E+00  0.00000000E+00  0.00000000E+00
  0.00000000E+00  0.00000000E+00  0.00000000E+00
  0.00000000E+00  0.00000000E+00  0.00000000E+00
  0.00000000E+00  0.00000000E+00  0.00000000E+00
  0.00000000E+00  0.00000000E+00  0.00000000E+00
  0.00000000E+00  0.00000000E+00  0.00000000E+00
  0.00000000E+00  0.00000000E+00  0.00000000E+00
  0.00000000E+00  0.00000000E+00  0.00000000E+00
  0.00000000E+00  0.00000000E+00  0.00000000E+00
  0.00000000E+00  0.00000000E+00  0.00000000E+00
  0.00000000E+00  0.00000000E+00  0.00000000E+00
  0.00000000E+00  0.00000000E+00  0.00000000E+00
  0.00000000E+00  0.00000000E+00  0.00000000E+00
  0.00000000E+00  0.00000000E+00  0.00000000E+00
  0.00000000E+00  0.00000000E+00  0.00000000E+00
  0.00000000E+00  0.00000000E+00  0.00000000E+00
  0.00000000E+00  0.00000000E+00  0.00000000E+00
  0.00000000E+00  0.00000000E+00  0.00000000E+00
  0.00000000E+00  0.00000000E+00  0.00000000E+00
  0.00000000E+00  0.00000000E+00  0.00000000E+00
  0.00000000E+00  0.00000000E+00  0.00000000E+00
  0.00000000E+00  0.00000000E+00  0.00000000E+00
  0.00000000E+00  0.00000000E+00  0.00000000E+00
  0.00000000E+00  0.00000000E+00  0.00000000E+00
  0.00000000E+00  0.00000000E+00  0.00000000E+00
  0.00000000E+00  0.00000000E+00  0.00000000E+00
  0.00000000E+00  0.00000000E+00  0.00000000E+00
