Cs8 Pb8 Br23
1.0
8.456489 0.000000 8.040301
0.000000 11.729847 0.000000
-8.456489 0.000000 8.040301
Cs Pb Br
8 8 23
direct
0.272029 0.249700 0.186683 Cs
0.771194 0.253934 0.753478 Cs
0.706380 0.749221 0.250547 Cs
0.211643 0.746720 0.784456 Cs
0.273580 0.255563 0.745622 Cs
0.802581 0.249848 0.217059 Cs
0.723973 0.749650 0.782419 Cs
0.241299 0.743231 0.287391 Cs
0.004847 -0.004052 -0.000440 Pb
0.491408 0.029729 0.495487 Pb
0.503620 0.001709 -0.004410 Pb
0.024806 -0.004805 0.502799 Pb
0.503991 0.499554 -0.003774 Pb
0.002296 0.496996 0.500617 Pb
0.004099 0.502965 0.000713 Pb
0.491686 0.487685 0.496961 Pb
0.481092 0.750878 0.972371 Br
0.965804 0.753047 0.454884 Br
0.994700 0.249593 0.974058 Br
0.397258 0.245861 0.471886 Br
0.033896 0.749703 0.041681 Br
0.550263 0.734842 0.511639 Br
0.537558 0.250222 0.025543 Br
0.013069 0.248157 0.548651 Br
0.251764 0.478512 0.953274 Br
0.459026 0.521732 0.245015 Br
0.948864 0.535808 0.747133 Br
0.549332 0.033848 0.745615 Br
0.054557 0.036390 0.257680 Br
0.757112 0.977123 0.046464 Br
0.266029 0.944474 0.548821 Br
0.252210 0.023759 0.946808 Br
0.459345 0.974695 0.247783 Br
0.953918 0.960462 0.748746 Br
0.756835 0.522723 0.046799 Br
0.239687 0.538628 0.553299 Br
0.543682 0.467472 0.747686 Br
0.053190 0.461556 0.254298 Br
0.703606 0.284750 0.463968 Br
