Cs64 Pb64 Br191
1.0
16.840035 0.000000 16.155961
0.000000 23.527616 0.000000
-16.840035 0.000000 16.155961
Cs Pb Br Cs Pb Br
56 56 168 8 8 23
direct
0.885513 0.874615 0.353648 Cs
0.136149 0.875134 0.604045 Cs
0.886210 0.375164 0.353783 Cs
0.136292 0.374898 0.603582 Cs
0.886531 0.875292 0.853941 Cs
0.135703 0.875113 0.102959 Cs
0.385521 0.876391 0.353170 Cs
0.635132 0.874189 0.604240 Cs
0.886273 0.374786 0.853707 Cs
0.136261 0.374861 0.104230 Cs
0.386306 0.875145 0.853110 Cs
0.636056 0.875165 0.103977 Cs
0.386257 0.374889 0.853737 Cs
0.635438 0.376071 0.103656 Cs
0.103785 0.125035 0.386110 Cs
0.352903 0.124914 0.635933 Cs
0.102639 0.625039 0.386013 Cs
0.103398 0.124997 0.886115 Cs
0.354028 0.124906 0.135821 Cs
0.603524 0.125131 0.385114 Cs
0.853911 0.124912 0.636538 Cs
0.103959 0.625065 0.886160 Cs
0.353048 0.625161 0.135266 Cs
0.853418 0.624892 0.635341 Cs
0.603933 0.125214 0.886298 Cs
0.853680 0.125024 0.135923 Cs
0.603824 0.625320 0.888822 Cs
0.853172 0.625175 0.137538 Cs
0.896712 0.875131 0.114047 Cs
0.145742 0.875209 0.363661 Cs
0.896618 0.374956 0.113885 Cs
0.146090 0.374845 0.364114 Cs
0.896830 0.875315 0.614180 Cs
0.146294 0.875161 0.864013 Cs
0.396431 0.875653 0.113399 Cs
0.646365 0.875574 0.363038 Cs
0.898247 0.374695 0.614669 Cs
0.146294 0.374891 0.864019 Cs
0.393775 0.375703 0.114434 Cs
0.396695 0.874688 0.615695 Cs
0.645689 0.875290 0.864107 Cs
0.646363 0.374995 0.864694 Cs
0.113494 0.124792 0.146132 Cs
0.362564 0.124044 0.396399 Cs
0.114284 0.624859 0.146673 Cs
0.113961 0.124940 0.646551 Cs
0.364070 0.125120 0.896684 Cs
0.614023 0.125269 0.146245 Cs
0.864258 0.124958 0.396465 Cs
0.113679 0.624988 0.646223 Cs
0.363733 0.625244 0.896830 Cs
0.614041 0.625400 0.145768 Cs
0.864824 0.624895 0.396920 Cs
0.614438 0.125127 0.646908 Cs
0.864199 0.124989 0.896799 Cs
0.863605 0.625096 0.895835 Cs
0.750414 0.751192 0.249069 Pb
0.000219 0.750434 0.500142 Pb
0.750233 0.249884 0.249872 Pb
0.000053 0.249651 0.500068 Pb
0.750373 0.751241 0.750446 Pb
0.000041 0.749782 0.000079 Pb
0.249438 0.750895 0.249450 Pb
0.499459 0.751848 0.496450 Pb
0.750331 0.249466 0.750391 Pb
0.000043 0.250139 0.000005 Pb
0.249736 0.750266 0.750362 Pb
0.499855 0.750601 0.000038 Pb
0.249953 0.249814 0.750307 Pb
0.499937 0.250481 0.000174 Pb
0.000317 0.750125 0.249982 Pb
0.249760 0.750179 0.500168 Pb
0.999865 0.249833 0.249899 Pb
0.000074 0.749932 0.750154 Pb
0.249889 0.750406 0.999988 Pb
0.498737 0.750698 0.249286 Pb
0.751059 0.750950 0.501017 Pb
0.000063 0.249883 0.750135 Pb
0.249876 0.249800 0.999756 Pb
0.750236 0.249122 0.500105 Pb
0.500130 0.749543 0.750101 Pb
0.750331 0.750415 0.000052 Pb
0.499841 0.250057 0.749968 Pb
0.750149 0.250065 0.000160 Pb
0.999971 0.000102 0.249998 Pb
0.249688 0.999437 0.500189 Pb
0.000314 0.499808 0.250020 Pb
0.000055 0.999988 0.750113 Pb
0.249929 0.000081 0.999910 Pb
0.499931 0.000676 0.249630 Pb
0.750169 0.000383 0.500126 Pb
0.000121 0.500125 0.750200 Pb
0.249644 0.499990 0.999762 Pb
0.751342 0.496943 0.501294 Pb
0.499975 0.000627 0.750165 Pb
0.750092 0.000136 0.000078 Pb
0.500375 0.499944 0.750729 Pb
0.750441 0.500025 0.000142 Pb
0.750251 0.000663 0.249962 Pb
0.000008 0.000041 0.500028 Pb
0.750661 0.499208 0.249175 Pb
0.000285 0.499598 0.500176 Pb
0.750153 0.000134 0.750190 Pb
0.000006 0.999996 0.000031 Pb
0.249682 0.999888 0.249630 Pb
0.500259 0.001539 0.500376 Pb
0.750511 0.499281 0.750673 Pb
0.000030 0.500188 0.000072 Pb
0.249949 0.000210 0.750236 Pb
0.500059 0.000431 0.000063 Pb
0.249791 0.499681 0.750311 Pb
0.499631 0.500291 0.001548 Pb
0.984060 0.124996 0.230632 Br
0.234102 0.124318 0.482137 Br
0.984538 0.624912 0.231176 Br
0.232102 0.625071 0.481328 Br
0.984507 0.124956 0.730815 Br
0.234254 0.125005 0.980277 Br
0.485023 0.126505 0.231018 Br
0.733448 0.124684 0.479651 Br
0.984001 0.624991 0.730198 Br
0.234361 0.625138 0.981445 Br
0.484114 0.625889 0.227562 Br
0.484111 0.125356 0.729203 Br
0.734382 0.125182 0.980846 Br
0.734770 0.625191 0.981397 Br
0.229483 0.875114 0.233683 Br
0.483509 0.869662 0.486624 Br
0.232897 0.374416 0.235883 Br
0.231043 0.875025 0.734455 Br
0.480797 0.875505 0.983691 Br
0.731770 0.875682 0.234210 Br
0.980456 0.875041 0.483947 Br
0.230913 0.374926 0.734236 Br
0.479880 0.375721 0.985581 Br
0.730920 0.375295 0.233550 Br
0.981394 0.374815 0.484111 Br
0.729410 0.875400 0.734234 Br
0.980980 0.874867 0.984573 Br
0.980702 0.375172 0.984385 Br
0.769736 0.125569 0.266149 Br
0.019722 0.124845 0.515825 Br
0.764263 0.625409 0.268975 Br
0.017825 0.624999 0.515813 Br
0.769733 0.124903 0.766200 Br
0.019030 0.125051 0.015579 Br
0.269968 0.124379 0.265360 Br
0.518220 0.124806 0.515499 Br
0.766894 0.625304 0.763766 Br
0.020123 0.624971 0.015971 Br
0.269981 0.125020 0.765941 Br
0.519289 0.125699 0.015783 Br
0.267396 0.624944 0.767596 Br
0.518315 0.625349 0.016792 Br
0.015020 0.874984 0.269652 Br
0.267176 0.874319 0.520889 Br
0.015671 0.374895 0.269662 Br
0.015701 0.874883 0.769197 Br
0.265735 0.875181 0.019484 Br
0.514819 0.875847 0.268657 Br
0.764772 0.875164 0.520318 Br
0.015573 0.375078 0.769104 Br
0.264981 0.374995 0.018852 Br
0.767067 0.373512 0.521360 Br
0.515720 0.874934 0.765969 Br
0.765787 0.875160 0.020144 Br
0.516337 0.375113 0.768374 Br
0.765477 0.375222 0.019959 Br
0.873848 0.982186 0.224647 Br
0.124144 0.981784 0.474723 Br
0.874033 0.482322 0.224434 Br
0.125047 0.482126 0.474785 Br
0.873814 0.982027 0.724618 Br
0.123965 0.982152 0.974522 Br
0.373958 0.982162 0.224604 Br
0.623366 0.982087 0.474671 Br
0.873721 0.482252 0.724639 Br
0.123868 0.482049 0.974549 Br
0.374389 0.482508 0.228404 Br
0.374041 0.982245 0.724531 Br
0.623865 0.982181 0.974715 Br
0.623686 0.482192 0.975972 Br
0.974609 0.017952 0.374032 Br
0.224559 0.017865 0.623970 Br
0.974488 0.517767 0.374096 Br
0.224653 0.517889 0.623890 Br
0.974543 0.017887 0.873897 Br
0.224529 0.018121 0.123963 Br
0.474407 0.017582 0.374574 Br
0.724364 0.018135 0.623855 Br
0.974518 0.518107 0.873902 Br
0.224892 0.517134 0.124070 Br
0.474736 0.018018 0.873636 Br
0.724487 0.018151 0.124060 Br
0.475074 0.517705 0.877456 Br
0.724487 0.518333 0.124199 Br
0.025544 0.767907 0.126234 Br
0.274528 0.769590 0.376229 Br
0.025482 0.268008 0.126177 Br
0.025569 0.768050 0.626076 Br
0.275626 0.768185 0.876050 Br
0.524651 0.768716 0.125850 Br
0.773549 0.765947 0.376465 Br
0.025614 0.267894 0.626066 Br
0.275713 0.268057 0.876160 Br
0.524566 0.270035 0.126559 Br
0.775557 0.268215 0.376279 Br
0.527629 0.760500 0.623529 Br
0.775871 0.768216 0.876220 Br
0.775427 0.267918 0.876175 Br
0.126026 0.231898 0.275232 Br
0.376439 0.232294 0.525281 Br
0.126104 0.732226 0.275793 Br
0.126239 0.232034 0.775574 Br
0.376119 0.232196 0.025445 Br
0.626010 0.232589 0.275567 Br
0.875820 0.231704 0.525527 Br
0.126047 0.732217 0.775483 Br
0.376133 0.732324 0.025286 Br
0.876191 0.733958 0.526185 Br
0.625981 0.232055 0.775115 Br
0.876020 0.232184 0.025559 Br
0.626065 0.732624 0.777986 Br
0.876065 0.731750 0.025846 Br
0.874007 0.767677 0.224474 Br
0.124634 0.768143 0.474820 Br
0.873825 0.268111 0.224592 Br
0.123988 0.267873 0.474754 Br
0.873648 0.767989 0.724481 Br
0.123887 0.767991 0.974395 Br
0.373407 0.768402 0.223196 Br
0.623457 0.763116 0.470560 Br
0.873901 0.267789 0.724584 Br
0.123907 0.267949 0.974568 Br
0.373833 0.266749 0.223692 Br
0.374085 0.767463 0.724596 Br
0.623927 0.768029 0.974896 Br
0.623774 0.268129 0.974879 Br
0.974623 0.232042 0.373997 Br
0.224475 0.232097 0.624191 Br
0.974462 0.732162 0.374090 Br
0.224556 0.731987 0.623899 Br
0.974519 0.232132 0.873893 Br
0.224159 0.231874 0.123818 Br
0.473377 0.230711 0.374195 Br
0.724507 0.231895 0.623912 Br
0.974487 0.731947 0.873881 Br
0.224087 0.732535 0.123924 Br
0.474820 0.232472 0.873576 Br
0.724452 0.232154 0.124081 Br
0.474771 0.732155 0.873279 Br
0.724673 0.731946 0.124036 Br
0.126135 0.018109 0.275533 Br
0.376657 0.016930 0.525771 Br
0.126084 0.517185 0.276401 Br
0.126172 0.017982 0.775516 Br
0.376202 0.018014 0.025381 Br
0.626037 0.017882 0.275506 Br
0.875922 0.018053 0.525513 Br
0.126141 0.517795 0.775519 Br
0.376013 0.517916 0.025388 Br
0.876495 0.515385 0.526455 Br
0.625988 0.018267 0.775442 Br
0.876076 0.017918 0.025512 Br
0.626153 0.517640 0.778683 Br
0.876059 0.518413 0.026034 Br
0.025445 0.982109 0.126191 Br
0.275041 0.982179 0.376291 Br
0.025701 0.482026 0.126254 Br
0.025458 0.982035 0.626067 Br
0.275673 0.981991 0.876116 Br
0.525477 0.982426 0.126244 Br
0.775296 0.981874 0.376262 Br
0.025801 0.482039 0.626115 Br
0.275678 0.481937 0.876020 Br
0.521459 0.482346 0.133805 Br
0.774391 0.483060 0.376524 Br
0.525590 0.982401 0.625514 Br
0.775361 0.981905 0.876106 Br
0.775994 0.482188 0.876491 Br
0.378554 0.369319 0.349174 Cs
0.638197 0.374788 0.607011 Cs
0.631463 0.627446 0.378154 Cs
0.350134 0.625115 0.639094 Cs
0.395277 0.375183 0.614150 Cs
0.648624 0.374121 0.363916 Cs
0.621114 0.624859 0.657999 Cs
0.357206 0.628307 0.392444 Cs
0.249387 0.248588 0.249290 Pb
0.499804 0.249429 0.499531 Pb
0.500174 0.251491 0.250160 Pb
0.249504 0.249546 0.500496 Pb
0.500112 0.502769 0.254332 Pb
0.250170 0.500517 0.500121 Pb
0.249631 0.499948 0.250015 Pb
0.500098 0.495421 0.498979 Pb
0.484068 0.624681 0.730452 Br
0.741193 0.624051 0.490265 Br
0.731599 0.374765 0.736175 Br
0.476357 0.378662 0.477934 Br
0.266253 0.625217 0.262903 Br
0.513528 0.376943 0.276959 Br
0.266243 0.375040 0.517824 Br
0.374329 0.482196 0.724677 Br
0.624173 0.479508 0.476717 Br
0.724135 0.515023 0.624543 Br
0.524114 0.270604 0.624604 Br
0.272365 0.264006 0.376205 Br
0.625630 0.737053 0.271794 Br
0.377735 0.728352 0.524832 Br
0.374031 0.268218 0.724433 Br
0.623197 0.268270 0.475117 Br
0.469108 0.736644 0.373240 Br
0.723216 0.734481 0.624201 Br
0.626396 0.515483 0.273211 Br
0.378175 0.522005 0.525073 Br
0.528201 0.486959 0.627641 Br
0.277193 0.483635 0.376422 Br
0.491881 0.553040 0.387929 Br
