Cs64 Pb64 Br191
1.0
16.840035 0.000000 16.155961
0.000000 23.527616 0.000000
-16.840035 0.000000 16.155961
Cs Pb Br Cs Pb Br
56 56 168 8 8 23
direct
0.886468 0.874961 0.352898 Cs
0.136503 0.875024 0.606146 Cs
0.888762 0.371742 0.354149 Cs
0.135766 0.375571 0.604559 Cs
0.886322 0.874933 0.852980 Cs
0.136025 0.874988 0.102578 Cs
0.385436 0.876640 0.353209 Cs
0.637345 0.875721 0.605730 Cs
0.885221 0.375669 0.852186 Cs
0.137571 0.374838 0.104547 Cs
0.384258 0.875165 0.850212 Cs
0.636616 0.874454 0.107247 Cs
0.389477 0.375262 0.852974 Cs
0.634112 0.375349 0.100131 Cs
0.104055 0.125125 0.385630 Cs
0.354034 0.125790 0.635295 Cs
0.103237 0.624291 0.389124 Cs
0.103449 0.124971 0.886052 Cs
0.350882 0.124877 0.135112 Cs
0.602025 0.121185 0.388948 Cs
0.854694 0.124530 0.638275 Cs
0.103530 0.624932 0.885391 Cs
0.366784 0.626008 0.139221 Cs
0.854081 0.623505 0.632582 Cs
0.604032 0.125138 0.885481 Cs
0.854631 0.125091 0.135176 Cs
0.602568 0.624299 0.885618 Cs
0.850449 0.625656 0.137208 Cs
0.896094 0.874597 0.114414 Cs
0.146208 0.875067 0.364246 Cs
0.898319 0.375058 0.112529 Cs
0.146491 0.375455 0.363158 Cs
0.899447 0.875054 0.614808 Cs
0.146928 0.874911 0.863834 Cs
0.393740 0.875660 0.111804 Cs
0.648642 0.879060 0.361041 Cs
0.886269 0.374449 0.610512 Cs
0.146628 0.375077 0.864348 Cs
0.396725 0.374374 0.114680 Cs
0.395735 0.875015 0.614655 Cs
0.646302 0.874700 0.864456 Cs
0.645838 0.375763 0.863638 Cs
0.113731 0.124813 0.144836 Cs
0.361753 0.123978 0.397048 Cs
0.114851 0.624807 0.143061 Cs
0.113838 0.124820 0.646686 Cs
0.363927 0.125103 0.896603 Cs
0.613756 0.124694 0.144424 Cs
0.865392 0.124533 0.397691 Cs
0.113902 0.624698 0.645288 Cs
0.365646 0.621692 0.896647 Cs
0.614744 0.632142 0.133901 Cs
0.863502 0.625195 0.392953 Cs
0.613566 0.125048 0.644601 Cs
0.864779 0.124900 0.898367 Cs
0.861762 0.625150 0.896656 Cs
0.753087 0.752234 0.249605 Pb
0.999969 0.750179 0.499941 Pb
0.749833 0.249614 0.249760 Pb
1.000175 0.249683 0.500616 Pb
0.750180 0.749711 0.749778 Pb
0.999915 0.749750 0.999641 Pb
0.249926 0.749768 0.249667 Pb
0.500390 0.751056 0.500270 Pb
0.750668 0.248693 0.751114 Pb
1.000005 0.250371 0.999610 Pb
0.250264 0.749216 0.750303 Pb
0.497471 0.752743 0.996990 Pb
0.250250 0.250551 0.750228 Pb
0.499914 0.249703 0.000082 Pb
0.003070 0.749399 0.249859 Pb
0.249849 0.750397 0.500625 Pb
0.999947 0.249605 0.249641 Pb
0.999886 0.749372 0.749963 Pb
0.249800 0.749156 0.999619 Pb
0.499534 0.753607 0.249391 Pb
0.750267 0.752424 0.500899 Pb
0.000222 0.250533 0.750067 Pb
0.250136 0.250513 0.999652 Pb
0.750335 0.247210 0.500646 Pb
0.499991 0.750129 0.749606 Pb
0.750405 0.751007 0.999388 Pb
0.499145 0.249294 0.749850 Pb
0.750110 0.250307 0.000051 Pb
0.000213 0.999971 0.249859 Pb
0.249785 0.999752 0.500349 Pb
0.004043 0.500666 0.249938 Pb
0.000151 0.999878 0.750206 Pb
0.249920 0.000129 0.999672 Pb
0.499494 0.001035 0.249503 Pb
0.750588 0.999539 0.500450 Pb
0.999879 0.499789 0.749871 Pb
0.250278 0.499925 0.999939 Pb
0.743755 0.501051 0.493092 Pb
0.500045 0.999879 0.750079 Pb
0.749908 0.000185 0.999861 Pb
0.500535 0.499948 0.746201 Pb
0.750210 0.500087 0.999620 Pb
0.750984 0.002371 0.249999 Pb
0.000196 0.999800 0.500034 Pb
0.753791 0.496477 0.249182 Pb
0.999921 0.498749 0.499914 Pb
0.750156 -0.000144 0.750241 Pb
0.999928 0.999603 0.999881 Pb
0.249740 0.999599 0.249821 Pb
0.499406 0.998641 0.500197 Pb
0.750035 0.500490 0.747187 Pb
0.999725 0.500092 0.999267 Pb
0.250157 0.000598 0.750049 Pb
0.499898 0.000298 0.999767 Pb
0.250211 0.499534 0.750055 Pb
0.500091 0.500122 0.002836 Pb
0.984900 0.125199 0.230182 Br
0.233071 0.125216 0.482562 Br
0.984315 0.623927 0.228458 Br
0.233588 0.624873 0.482354 Br
0.985217 0.125008 0.732001 Br
0.234350 0.125334 0.981317 Br
0.482622 0.125683 0.226827 Br
0.735186 0.123647 0.479852 Br
0.984124 0.624553 0.728849 Br
0.234110 0.624277 0.978767 Br
0.502851 0.624024 0.241574 Br
0.484414 0.124679 0.730410 Br
0.734174 0.125678 0.981144 Br
0.731564 0.625506 0.984174 Br
0.229716 0.874245 0.233880 Br
0.476828 0.874827 0.484608 Br
0.235104 0.375960 0.234211 Br
0.233275 0.874798 0.735425 Br
0.476879 0.876238 0.981394 Br
0.739037 0.876380 0.233669 Br
0.980901 0.874452 0.483372 Br
0.229343 0.375018 0.734634 Br
0.482042 0.375427 0.986910 Br
0.719407 0.375798 0.237747 Br
0.977951 0.374290 0.485695 Br
0.731413 0.874713 0.735556 Br
0.979855 0.874618 0.984525 Br
0.979747 0.375303 0.982629 Br
0.773693 0.126687 0.265741 Br
0.020170 0.124643 0.515188 Br
0.752793 0.623438 0.267231 Br
0.014955 0.623791 0.516654 Br
0.770672 0.124454 0.767827 Br
0.017853 0.125093 0.015142 Br
0.268566 0.124777 0.265519 Br
0.513699 0.123994 0.517451 Br
0.771026 0.624597 0.763071 Br
0.019650 0.624707 0.014756 Br
0.270662 0.125417 0.765308 Br
0.519503 0.125215 0.014704 Br
0.270837 0.624368 0.766315 Br
0.513542 0.626205 0.012644 Br
0.016196 0.874377 0.268499 Br
0.265040 0.874970 0.520387 Br
0.016323 0.375632 0.268049 Br
0.016232 0.874503 0.768418 Br
0.264474 0.874677 0.016895 Br
0.515068 0.876632 0.269636 Br
0.768503 0.875173 0.522285 Br
0.016368 0.375212 0.770782 Br
0.266588 0.375075 0.020937 Br
0.750080 0.375058 0.514439 Br
0.515997 0.874757 0.769281 Br
0.765120 0.875525 0.019830 Br
0.519066 0.374792 0.762424 Br
0.766297 0.375804 0.020140 Br
0.874384 0.983256 0.223862 Br
0.123791 0.981893 0.474606 Br
0.870203 0.482602 0.225279 Br
0.121824 0.482291 0.477662 Br
0.874038 0.981965 0.724514 Br
0.123815 0.982186 0.974308 Br
0.373932 0.981932 0.224168 Br
0.623894 0.981626 0.475051 Br
0.873851 0.482118 0.722091 Br
0.124048 0.481757 0.975791 Br
0.382453 0.485261 0.223466 Br
0.374049 0.982569 0.724185 Br
0.623786 0.981773 0.974910 Br
0.624182 0.482696 0.975653 Br
0.974846 0.017625 0.373762 Br
0.224499 0.017866 0.623947 Br
0.976275 0.517925 0.373112 Br
0.225399 0.517857 0.624105 Br
0.974466 0.017540 0.873892 Br
0.224317 0.017475 0.123922 Br
0.474093 0.018173 0.373684 Br
0.724716 0.018316 0.623982 Br
0.973658 0.518834 0.873847 Br
0.228756 0.518554 0.125367 Br
0.474640 0.018270 0.873776 Br
0.724743 0.018081 0.124164 Br
0.478672 0.514061 0.875966 Br
0.722997 0.517440 0.124488 Br
0.026692 0.767237 0.126047 Br
0.274889 0.769943 0.376161 Br
0.025716 0.268249 0.126084 Br
0.025561 0.767727 0.625917 Br
0.276087 0.766865 0.876092 Br
0.521362 0.768195 0.124082 Br
0.774075 0.768187 0.376065 Br
0.025360 0.268008 0.625973 Br
0.276715 0.269225 0.876310 Br
0.525668 0.268285 0.126626 Br
0.776782 0.265524 0.376466 Br
0.526834 0.767462 0.625759 Br
0.775954 0.767439 0.875837 Br
0.775646 0.268230 0.876693 Br
0.125718 0.232616 0.274606 Br
0.373687 0.234907 0.524295 Br
0.127743 0.727888 0.276693 Br
0.126497 0.232059 0.775589 Br
0.376288 0.232227 0.025803 Br
0.626294 0.225775 0.275998 Br
0.876063 0.231861 0.526799 Br
0.126224 0.731904 0.775124 Br
0.375289 0.731859 0.025506 Br
0.875840 0.732619 0.524012 Br
0.626209 0.232509 0.774179 Br
0.876122 0.232928 0.025955 Br
0.626250 0.731690 0.775700 Br
0.875743 0.731105 0.025945 Br
0.876972 0.764551 0.224335 Br
0.124200 0.767498 0.474753 Br
0.873258 0.271020 0.224479 Br
0.122628 0.270655 0.473844 Br
0.873912 0.767697 0.724086 Br
0.123480 0.767621 0.974161 Br
0.374155 0.768122 0.223822 Br
0.624166 0.775419 0.474659 Br
0.874186 0.268003 0.724436 Br
0.124022 0.268098 0.974714 Br
0.374451 0.267481 0.225723 Br
0.374091 0.766929 0.723459 Br
0.623201 0.767647 0.976599 Br
0.623904 0.268152 0.974218 Br
0.974846 0.232112 0.373741 Br
0.223284 0.232291 0.624366 Br
0.975192 0.731497 0.373645 Br
0.224452 0.731975 0.623825 Br
0.974470 0.232169 0.873909 Br
0.224419 0.232140 0.123837 Br
0.474767 0.228426 0.373628 Br
0.726375 0.231498 0.624827 Br
0.973961 0.731351 0.873814 Br
0.225143 0.731933 0.124091 Br
0.474079 0.233186 0.874200 Br
0.724428 0.232184 0.124340 Br
0.472541 0.731951 0.872582 Br
0.728038 0.735352 0.123992 Br
0.126276 0.017951 0.275364 Br
0.375796 0.017542 0.525567 Br
0.128001 0.518628 0.273462 Br
0.126267 0.017807 0.775507 Br
0.376035 0.018147 0.025553 Br
0.626424 0.018353 0.274567 Br
0.876239 0.018381 0.526004 Br
0.126187 0.518105 0.774498 Br
0.376552 0.517182 0.027338 Br
0.865765 0.513322 0.520344 Br
0.626231 0.017924 0.775221 Br
0.876013 0.017615 0.025497 Br
0.626403 0.518147 0.773189 Br
0.876092 0.519167 0.026703 Br
0.025557 0.982005 0.126091 Br
0.274967 0.982332 0.376094 Br
0.025698 0.481614 0.126241 Br
0.025719 0.982249 0.626022 Br
0.275815 0.983030 0.876155 Br
0.525293 0.981512 0.126007 Br
0.776246 0.982387 0.376132 Br
0.022245 0.481230 0.625505 Br
0.276664 0.480614 0.876651 Br
0.527453 0.486926 0.133775 Br
0.781255 0.481340 0.373505 Br
0.525506 0.981751 0.625942 Br
0.775511 0.981874 0.876276 Br
0.773833 0.484191 0.874312 Br
0.384199 0.367294 0.359675 Cs
0.632263 0.370973 0.615106 Cs
0.614033 0.647150 0.378917 Cs
0.353563 0.623314 0.636265 Cs
0.401845 0.377595 0.610549 Cs
0.643987 0.357436 0.372057 Cs
0.613400 0.625275 0.645670 Cs
0.361456 0.633972 0.399441 Cs
0.249772 0.249436 0.249602 Pb
0.497678 0.247748 0.499896 Pb
0.500214 0.248119 0.249784 Pb
0.247374 0.250150 0.500879 Pb
0.498315 0.497932 0.260056 Pb
0.253637 0.499778 0.500570 Pb
0.252749 0.500934 0.250551 Pb
0.505529 0.502498 0.486497 Pb
0.484271 0.624907 0.731147 Br
0.735612 0.626267 0.479640 Br
0.734343 0.374518 0.736620 Br
0.494618 0.375367 0.481758 Br
0.275523 0.624827 0.265060 Br
0.527670 0.626325 0.505766 Br
0.515856 0.374433 0.275572 Br
0.267219 0.375291 0.520609 Br
0.374237 0.480706 0.723678 Br
0.446630 0.511674 0.373496 Br
0.721059 0.514559 0.619391 Br
0.522344 0.264271 0.625696 Br
0.271670 0.264628 0.376205 Br
0.627359 0.747885 0.265381 Br
0.376886 0.731609 0.527057 Br
0.374143 0.270464 0.722991 Br
0.623118 0.254266 0.481202 Br
0.475257 0.737009 0.373267 Br
0.724383 0.731902 0.623594 Br
0.378500 0.517970 0.522976 Br
0.526303 0.486808 0.622179 Br
0.272023 0.478461 0.376094 Br
0.612072 0.498398 0.418988 Br
