Cs4 Pb4 Br12                            
   1.0000000000000000     
     8.1855931264027113    0.0000000000000000    0.0000000000000000
     0.0000000000000000   11.6475890843083310    0.0000000000000000
     0.0000000000000000    0.0000000000000000    8.4818795813957841
   Cs   Pb   Br
     4     4    12
Direct
  0.0460992027938900  0.2500000000000000  0.4923428732292621
  0.4539007972061100  0.7500000000000000  0.9923428732292621
  0.5460992027938900  0.2500000000000000  0.0076571267707379
  0.9539007972061100  0.7500000000000000  0.5076571267707379
  0.0000000000000000  0.0000000000000000  0.0000000000000000
  0.5000000000000000  0.0000000000000000  0.5000000000000000
  0.5000000000000000  0.5000000000000000  0.5000000000000000
  0.0000000000000000  0.5000000000000000  0.0000000000000000
  0.5060863344293409  0.7500000000000000  0.4237336369305922
  0.9939136655706591  0.2500000000000000  0.9237336369305922
  0.0060863344293409  0.7500000000000000  0.0762663630694078
  0.4939136655706591  0.2500000000000000  0.5762663630694078
  0.2879279119259053  0.4613204121237473  0.2144264963155464
  0.2120720880740947  0.5386795878762527  0.7144264963155464
  0.7879279119259053  0.0386795878762527  0.2855735036844536
  0.7120720880740947  0.9613204121237473  0.7855735036844536
  0.2879279119259053  0.0386795878762527  0.2144264963155464
  0.2120720880740947  0.9613204121237473  0.7144264963155464
  0.7120720880740947  0.5386795878762527  0.7855735036844536
  0.7879279119259053  0.4613204121237473  0.2855735036844536

  0.00000000E+00  0.00000000E+00  0.00000000E+00
  0.00000000E+00  0.00000000E+00  0.00000000E+00
  0.00000000E+00  0.00000000E+00  0.00000000E+00
  0.00000000E+00  0.00000000E+00  0.00000000E+00
  0.00000000E+00  0.00000000E+00  0.00000000E+00
  0.00000000E+00  0.00000000E+00  0.00000000E+00
  0.00000000E+00  0.00000000E+00  0.00000000E+00
  0.00000000E+00  0.00000000E+00  0.00000000E+00
  0.00000000E+00  0.00000000E+00  0.00000000E+00
  0.00000000E+00  0.00000000E+00  0.00000000E+00
  0.00000000E+00  0.00000000E+00  0.00000000E+00
  0.00000000E+00  0.00000000E+00  0.00000000E+00
  0.00000000E+00  0.00000000E+00  0.00000000E+00
  0.00000000E+00  0.00000000E+00  0.00000000E+00
  0.00000000E+00  0.00000000E+00  0.00000000E+00
  0.00000000E+00  0.00000000E+00  0.00000000E+00
  0.00000000E+00  0.00000000E+00  0.00000000E+00
  0.00000000E+00  0.00000000E+00  0.00000000E+00
  0.00000000E+00  0.00000000E+00  0.00000000E+00
  0.00000000E+00  0.00000000E+00  0.00000000E+00
