Cs4 Pb4 Br12                            
   1.0000000000000000     
     8.1855931264027113    0.0000000000000000    0.0000000000000000
     0.0000000000000000   11.6475890843083310    0.0000000000000000
     0.0000000000000000    0.0000000000000000    8.4818795813957841
   Cs   Pb   Br
     4     4    12
Direct
  0.0460992027938929  0.2500000000000000  0.4923428732292644
  0.4539007972061071  0.7500000000000000  0.9923428732292644
  0.5460992027938929  0.2500000000000000  0.0076571267707356
  0.9539007972061071  0.7500000000000000  0.5076571267707356
  0.0000000000000000  0.0000000000000000 -0.0000000000000000
  0.5000000000000000  0.0000000000000000  0.5000000000000000
  0.5000000000000000  0.5000000000000000  0.5000000000000000
  0.0000000000000000  0.5000000000000000 -0.0000000000000000
  0.5060863344293433  0.7500000000000000  0.4237336369305904
  0.9939136655706567  0.2500000000000000  0.9237336369305904
  0.0060863344293432  0.7500000000000000  0.0762663630694096
  0.4939136655706567  0.2500000000000000  0.5762663630694096
  0.2879279119259034  0.4613204121237452  0.2144264963155457
  0.2120720880740966  0.5386795878762548  0.7144264963155457
  0.7879279119259035  0.0386795878762548  0.2855735036844543
  0.7120720880740965  0.9613204121237452  0.7855735036844543
  0.2879279119259034  0.0386795878762548  0.2144264963155457
  0.2120720880740966  0.9613204121237452  0.7144264963155457
  0.7120720880740965  0.5386795878762548  0.7855735036844543
  0.7879279119259035  0.4613204121237452  0.2855735036844543

  0.00000000E+00  0.00000000E+00  0.00000000E+00
  0.00000000E+00  0.00000000E+00  0.00000000E+00
  0.00000000E+00  0.00000000E+00  0.00000000E+00
  0.00000000E+00  0.00000000E+00  0.00000000E+00
  0.00000000E+00  0.00000000E+00  0.00000000E+00
  0.00000000E+00  0.00000000E+00  0.00000000E+00
  0.00000000E+00  0.00000000E+00  0.00000000E+00
  0.00000000E+00  0.00000000E+00  0.00000000E+00
  0.00000000E+00  0.00000000E+00  0.00000000E+00
  0.00000000E+00  0.00000000E+00  0.00000000E+00
  0.00000000E+00  0.00000000E+00  0.00000000E+00
  0.00000000E+00  0.00000000E+00  0.00000000E+00
  0.00000000E+00  0.00000000E+00  0.00000000E+00
  0.00000000E+00  0.00000000E+00  0.00000000E+00
  0.00000000E+00  0.00000000E+00  0.00000000E+00
  0.00000000E+00  0.00000000E+00  0.00000000E+00
  0.00000000E+00  0.00000000E+00  0.00000000E+00
  0.00000000E+00  0.00000000E+00  0.00000000E+00
  0.00000000E+00  0.00000000E+00  0.00000000E+00
  0.00000000E+00  0.00000000E+00  0.00000000E+00
