Cs8 Pb8 Br23                            
   1.0000000000000000     
     8.4564889999999995    0.0000000000000000    8.0403009999999995
     0.0000000000000000   11.7298469999999995    0.0000000000000000
    -8.4564889999999995    0.0000000000000000    8.0403009999999995
   Cs   Pb   Br
     8     8    23
Direct
  0.2677490000000020  0.2492560000000026  0.1974680000000006
  0.7744840000000011  0.2423530000000014  0.7238499999999988
  0.7136589999999998  0.7584200000000010  0.2573509999999999
  0.2034599999999998  0.7537420000000026  0.7807839999999970
  0.2879530000000017  0.2466259999999991  0.7320020000000014
  0.7947419999999994  0.2463929999999976  0.2251720000000006
  0.7358619999999974  0.7504649999999984  0.8056410000000014
  0.2215589999999992  0.7530659999999969  0.2810449999999989
  0.0007420000000025  0.0004509999999982  0.0003310000000027
  0.4994259999999997  0.0051059999999978  0.4989259999999973
  0.4992179999999991  0.0002700000000004  0.9999309999999966
  0.0005209999999991  0.9988949999999974  0.5001129999999989
  0.5000569999999982  0.5000470000000021  0.9999719999999996
  0.0059460000000016  0.5009179999999986  0.5003820000000019
  0.9999650000000031  0.4991729999999990  0.9996369999999999
  0.4913799999999995  0.4959160000000011  0.5008249999999990
  0.4726289999999977  0.7500969999999967  0.9630879999999991
  0.9653419999999997  0.7479450000000014  0.4594760000000022
  0.9724980000000016  0.2499159999999989  0.9726330000000019
  0.4583790000000008  0.2515560000000008  0.4672600000000031
  0.0219689999999986  0.7495669999999990  0.0311779999999970
  0.5299839999999989  0.2504660000000030  0.0354359999999971
  0.0247090000000014  0.2509609999999967  0.5388049999999964
  0.2477429999999998  0.4695699999999974  0.9476820000000004
  0.4552389999999988  0.5411289999999980  0.2511739999999989
  0.9474950000000035  0.5314860000000010  0.7458219999999969
  0.5481499999999997  0.0299499999999995  0.7512619999999970
  0.0503339999999994  0.0347269999999966  0.2526799999999980
  0.7525410000000008  0.9756580000000028  0.0467000000000013
  0.2548889999999986  0.9572870000000009  0.5480179999999990
  0.2480400000000031  0.0314940000000021  0.9493060000000000
  0.7471310000000031  0.0338629999999966  0.4499730000000000
  0.4517609999999976  0.9616770000000017  0.2502849999999981
  0.9506050000000030  0.9652829999999994  0.7473839999999967
  0.7523910000000029  0.5276840000000007  0.0546020000000027
  0.2530100000000033  0.5430840000000003  0.5527090000000001
  0.5531969999999973  0.4671390000000031  0.7492429999999999
  0.0515680000000032  0.4645220000000023  0.2536210000000025
  0.6495779999999982  0.6075879999999998  0.4871430000000032

  0.00000000E+00  0.00000000E+00  0.00000000E+00
  0.00000000E+00  0.00000000E+00  0.00000000E+00
  0.00000000E+00  0.00000000E+00  0.00000000E+00
  0.00000000E+00  0.00000000E+00  0.00000000E+00
  0.00000000E+00  0.00000000E+00  0.00000000E+00
  0.00000000E+00  0.00000000E+00  0.00000000E+00
  0.00000000E+00  0.00000000E+00  0.00000000E+00
  0.00000000E+00  0.00000000E+00  0.00000000E+00
  0.00000000E+00  0.00000000E+00  0.00000000E+00
  0.00000000E+00  0.00000000E+00  0.00000000E+00
  0.00000000E+00  0.00000000E+00  0.00000000E+00
  0.00000000E+00  0.00000000E+00  0.00000000E+00
  0.00000000E+00  0.00000000E+00  0.00000000E+00
  0.00000000E+00  0.00000000E+00  0.00000000E+00
  0.00000000E+00  0.00000000E+00  0.00000000E+00
  0.00000000E+00  0.00000000E+00  0.00000000E+00
  0.00000000E+00  0.00000000E+00  0.00000000E+00
  0.00000000E+00  0.00000000E+00  0.00000000E+00
  0.00000000E+00  0.00000000E+00  0.00000000E+00
  0.00000000E+00  0.00000000E+00  0.00000000E+00
  0.00000000E+00  0.00000000E+00  0.00000000E+00
  0.00000000E+00  0.00000000E+00  0.00000000E+00
  0.00000000E+00  0.00000000E+00  0.00000000E+00
  0.00000000E+00  0.00000000E+00  0.00000000E+00
  0.00000000E+00  0.00000000E+00  0.00000000E+00
  0.00000000E+00  0.00000000E+00  0.00000000E+00
  0.00000000E+00  0.00000000E+00  0.00000000E+00
  0.00000000E+00  0.00000000E+00  0.00000000E+00
  0.00000000E+00  0.00000000E+00  0.00000000E+00
  0.00000000E+00  0.00000000E+00  0.00000000E+00
  0.00000000E+00  0.00000000E+00  0.00000000E+00
  0.00000000E+00  0.00000000E+00  0.00000000E+00
  0.00000000E+00  0.00000000E+00  0.00000000E+00
  0.00000000E+00  0.00000000E+00  0.00000000E+00
  0.00000000E+00  0.00000000E+00  0.00000000E+00
  0.00000000E+00  0.00000000E+00  0.00000000E+00
  0.00000000E+00  0.00000000E+00  0.00000000E+00
  0.00000000E+00  0.00000000E+00  0.00000000E+00
  0.00000000E+00  0.00000000E+00  0.00000000E+00
