Cs63 Pb64 Br192
1.0
16.840035 0.000000 16.155961
0.000000 23.527616 0.000000
-16.840035 0.000000 16.155961
Cs Pb Br Cs Pb Br Cs
56 56 168 6 8 24 1
direct
0.886136 0.875253 0.353806 Cs
0.136235 0.875305 0.603772 Cs
0.885007 0.375488 0.353736 Cs
0.137023 0.375402 0.603578 Cs
0.886191 0.875284 0.853993 Cs
0.136296 0.875215 0.104147 Cs
0.387145 0.875559 0.353753 Cs
0.636743 0.876006 0.604313 Cs
0.885816 0.375295 0.853862 Cs
0.137453 0.375401 0.106274 Cs
0.386270 0.875216 0.854045 Cs
0.636527 0.875109 0.105733 Cs
0.386215 0.375398 0.854795 Cs
0.636569 0.375700 0.109110 Cs
0.104707 0.126024 0.386323 Cs
0.354095 0.125528 0.636075 Cs
0.104786 0.624829 0.386319 Cs
0.103803 0.125439 0.886462 Cs
0.354445 0.125591 0.137849 Cs
0.605529 0.126068 0.388287 Cs
0.853289 0.125665 0.635954 Cs
0.103991 0.625177 0.886654 Cs
0.353843 0.625145 0.136844 Cs
0.852882 0.625306 0.635278 Cs
0.603792 0.125422 0.886429 Cs
0.853861 0.125822 0.136778 Cs
0.603676 0.625299 0.886452 Cs
0.854228 0.624876 0.136451 Cs
0.896337 0.875205 0.114395 Cs
0.146545 0.875182 0.364220 Cs
0.894353 0.375485 0.114961 Cs
0.146723 0.375899 0.364480 Cs
0.896653 0.875330 0.614054 Cs
0.146540 0.875236 0.864309 Cs
0.396901 0.875165 0.114609 Cs
0.646413 0.875236 0.363751 Cs
0.899853 0.375337 0.614864 Cs
0.146432 0.375322 0.864196 Cs
0.398927 0.375685 0.117456 Cs
0.396675 0.875286 0.614034 Cs
0.646667 0.875252 0.864426 Cs
0.646615 0.375314 0.864666 Cs
0.114329 0.125659 0.146915 Cs
0.364839 0.125853 0.396939 Cs
0.114472 0.624899 0.146874 Cs
0.114213 0.125494 0.646565 Cs
0.364184 0.125451 0.896979 Cs
0.614310 0.125410 0.146236 Cs
0.864236 0.124986 0.397123 Cs
0.114209 0.625082 0.646380 Cs
0.364343 0.625062 0.896984 Cs
0.614208 0.625488 0.146536 Cs
0.864157 0.625825 0.398336 Cs
0.614194 0.125817 0.645994 Cs
0.863975 0.125539 0.896856 Cs
0.863913 0.624997 0.896539 Cs
0.750068 0.749454 0.250493 Pb
0.000152 0.750521 0.500130 Pb
0.749684 0.251714 0.252893 Pb
0.000248 0.250588 0.500060 Pb
0.750098 0.750528 0.750188 Pb
0.000083 0.750256 0.000264 Pb
0.250877 0.750444 0.250365 Pb
0.500962 0.750351 0.500002 Pb
0.750012 0.250599 0.749969 Pb
0.000114 0.250712 0.000350 Pb
0.250090 0.750447 0.750125 Pb
0.500226 0.750459 0.000422 Pb
0.250148 0.250494 0.749995 Pb
0.500231 0.250645 0.000556 Pb
0.000172 0.750359 0.250243 Pb
0.250488 0.750543 0.500207 Pb
-0.000004 0.250757 0.250344 Pb
0.000071 0.750430 0.750086 Pb
0.250274 0.750380 0.000315 Pb
0.501147 0.749415 0.251207 Pb
0.750046 0.750712 0.500166 Pb
0.000123 0.250533 0.750112 Pb
0.250452 0.250731 0.000449 Pb
0.750021 0.252615 0.499299 Pb
0.500341 0.750597 0.750121 Pb
0.750096 0.750424 0.000303 Pb
0.500302 0.250682 0.750185 Pb
0.749853 0.250527 0.000969 Pb
0.000072 0.000528 0.250170 Pb
0.250175 0.000694 0.500085 Pb
0.000155 0.500518 0.250344 Pb
0.000089 0.000517 0.750084 Pb
0.250250 0.000587 0.000297 Pb
0.500390 0.000977 0.250307 Pb
0.750140 0.000755 0.500104 Pb
0.000038 0.500639 0.750068 Pb
0.250459 0.500010 0.000585 Pb
0.750046 0.499106 0.499393 Pb
0.500149 0.000548 0.750133 Pb
0.750056 0.000482 0.000280 Pb
0.500628 0.500474 0.750271 Pb
0.749846 0.500472 0.000964 Pb
0.750126 0.000990 0.250366 Pb
0.000151 0.000718 0.500121 Pb
0.749639 0.499995 0.253101 Pb
0.000384 0.500488 0.500143 Pb
0.750140 0.000703 0.750202 Pb
0.000135 0.000565 0.000281 Pb
0.250246 0.000467 0.250325 Pb
0.500217 0.000822 0.500157 Pb
0.750096 0.500368 0.750039 Pb
0.000121 0.500139 0.000427 Pb
0.250162 0.000580 0.750180 Pb
0.500138 0.000507 0.000299 Pb
0.250137 0.500675 0.750143 Pb
0.500406 0.500347 0.000837 Pb
0.984925 0.125623 0.231058 Br
0.235268 0.125953 0.481286 Br
0.985064 0.625887 0.230720 Br
0.235105 0.625770 0.481642 Br
0.984345 0.125685 0.730827 Br
0.234206 0.125786 0.981128 Br
0.484430 0.125648 0.231560 Br
0.735429 0.126106 0.483659 Br
0.984041 0.625837 0.730541 Br
0.234516 0.625548 0.981495 Br
0.483194 0.626215 0.230013 Br
0.484649 0.125751 0.730979 Br
0.734225 0.125512 0.981221 Br
0.734325 0.625819 0.980982 Br
0.230906 0.875653 0.234557 Br
0.480900 0.876202 0.484806 Br
0.233112 0.375823 0.235270 Br
0.230692 0.875762 0.734628 Br
0.480589 0.875751 0.984537 Br
0.732104 0.875651 0.235089 Br
0.981471 0.875881 0.484405 Br
0.231229 0.375723 0.734758 Br
0.480200 0.375634 0.985483 Br
0.736659 0.375844 0.234530 Br
0.982050 0.375775 0.483596 Br
0.731258 0.875898 0.735185 Br
0.981021 0.875626 0.984699 Br
0.979704 0.375598 0.984880 Br
0.770851 0.125264 0.266005 Br
0.020314 0.125671 0.516153 Br
0.772633 0.626215 0.265922 Br
0.019626 0.625995 0.516131 Br
0.769881 0.125712 0.766429 Br
0.019893 0.125669 0.016393 Br
0.269275 0.125477 0.267249 Br
0.518758 0.126102 0.516357 Br
0.769613 0.625864 0.765843 Br
0.019797 0.625579 0.016411 Br
0.269887 0.125667 0.766374 Br
0.519361 0.125557 0.015858 Br
0.269567 0.625883 0.766770 Br
0.519212 0.625816 0.015760 Br
0.016261 0.875784 0.269739 Br
0.265939 0.875959 0.520078 Br
0.015914 0.375769 0.270384 Br
0.016124 0.875780 0.769948 Br
0.266177 0.875726 0.019972 Br
0.516367 0.875903 0.268637 Br
0.766657 0.876270 0.519900 Br
0.015920 0.375770 0.769706 Br
0.267386 0.375577 0.021495 Br
0.770791 0.375793 0.522962 Br
0.516246 0.875874 0.770396 Br
0.765849 0.875707 0.020009 Br
0.515557 0.375751 0.770652 Br
0.764639 0.375651 0.019984 Br
0.874307 0.982230 0.224689 Br
0.124194 0.982302 0.474647 Br
0.875021 0.483631 0.224996 Br
0.125699 0.482728 0.475924 Br
0.874173 0.982198 0.724686 Br
0.124132 0.982206 0.974688 Br
0.374054 0.982321 0.224700 Br
0.624195 0.982327 0.474702 Br
0.874296 0.482155 0.724836 Br
0.124212 0.481906 0.975114 Br
0.375968 0.484275 0.226031 Br
0.374077 0.982175 0.724708 Br
0.624090 0.982209 0.974742 Br
0.624072 0.482300 0.974981 Br
0.974785 0.018179 0.374152 Br
0.224539 0.018288 0.624224 Br
0.975863 0.519415 0.374410 Br
0.225543 0.518743 0.624791 Br
0.974520 0.018330 0.874147 Br
0.224520 0.018318 0.124146 Br
0.474621 0.018215 0.374270 Br
0.724532 0.018180 0.624425 Br
0.974718 0.518261 0.874153 Br
0.225550 0.518298 0.125004 Br
0.474465 0.018289 0.874111 Br
0.724627 0.018092 0.124058 Br
0.474788 0.518203 0.874377 Br
0.725885 0.518275 0.124920 Br
0.025788 0.768270 0.126157 Br
0.276059 0.769007 0.376436 Br
0.025895 0.268572 0.126221 Br
0.026015 0.768414 0.626362 Br
0.275686 0.768308 0.876296 Br
0.525581 0.768210 0.126220 Br
0.775989 0.768318 0.376449 Br
0.026686 0.268378 0.626549 Br
0.275613 0.268367 0.876439 Br
0.525785 0.267392 0.126182 Br
0.781868 0.262804 0.377020 Br
0.525996 0.769314 0.626578 Br
0.775904 0.768362 0.876453 Br
0.775598 0.268173 0.876380 Br
0.126671 0.233309 0.275978 Br
0.376942 0.232660 0.526440 Br
0.126404 0.732308 0.275753 Br
0.126172 0.232249 0.775919 Br
0.376073 0.231932 0.025932 Br
0.626805 0.226261 0.272595 Br
0.876962 0.232781 0.526804 Br
0.126152 0.732177 0.775892 Br
0.376077 0.732252 0.025826 Br
0.876478 0.734158 0.526716 Br
0.626133 0.232143 0.775996 Br
0.876203 0.232244 0.025682 Br
0.626182 0.732510 0.776062 Br
0.876230 0.732226 0.025758 Br
0.874556 0.768398 0.224755 Br
0.124282 0.768196 0.474703 Br
0.874747 0.267667 0.224876 Br
0.125031 0.268284 0.475191 Br
0.874185 0.768390 0.724695 Br
0.124081 0.768222 0.974661 Br
0.374334 0.768343 0.224809 Br
0.624479 0.770655 0.476179 Br
0.874227 0.268316 0.724748 Br
0.124137 0.268716 0.975033 Br
0.375217 0.266954 0.225901 Br
0.374033 0.768364 0.724755 Br
0.624090 0.768286 0.974726 Br
0.623970 0.268165 0.974911 Br
0.975247 0.231917 0.374409 Br
0.224906 0.232161 0.624433 Br
0.974788 0.732370 0.374255 Br
0.224576 0.732266 0.624301 Br
0.974731 0.232206 0.874191 Br
0.225059 0.232251 0.124656 Br
0.475171 0.232315 0.375143 Br
0.725015 0.232393 0.624403 Br
0.974595 0.732119 0.874174 Br
0.224657 0.732219 0.124259 Br
0.474621 0.232270 0.874181 Br
0.725998 0.232747 0.124790 Br
0.474549 0.732328 0.874167 Br
0.724747 0.732358 0.124101 Br
0.126239 0.018296 0.275900 Br
0.376139 0.018199 0.525882 Br
0.127108 0.517971 0.275292 Br
0.126201 0.018393 0.775932 Br
0.376135 0.018721 0.026262 Br
0.626289 0.018723 0.276469 Br
0.876389 0.018221 0.526041 Br
0.126150 0.518447 0.776053 Br
0.376160 0.518442 0.025841 Br
0.877407 0.517536 0.527403 Br
0.626208 0.018332 0.775882 Br
0.876241 0.018384 0.025933 Br
0.626370 0.518468 0.776517 Br
0.876285 0.518178 0.025656 Br
0.025793 0.982223 0.126128 Br
0.275808 0.982137 0.376262 Br
0.025756 0.482042 0.126136 Br
0.025818 0.982273 0.626293 Br
0.275745 0.982244 0.876267 Br
0.525853 0.982399 0.126098 Br
0.775783 0.982369 0.376325 Br
0.027012 0.482706 0.626540 Br
0.275414 0.482123 0.876693 Br
0.525793 0.484587 0.126516 Br
0.782214 0.488379 0.377279 Br
0.525718 0.982415 0.626393 Br
0.775797 0.982286 0.876269 Br
0.775841 0.482432 0.876557 Br
0.389879 0.375432 0.353455 Cs
0.638111 0.375373 0.602067 Cs
0.354854 0.625776 0.637017 Cs
0.397787 0.376181 0.615847 Cs
0.614889 0.625217 0.645556 Cs
0.365661 0.625490 0.398518 Cs
0.251174 0.250677 0.250630 Pb
0.502766 0.252344 0.500016 Pb
0.502826 0.251223 0.252001 Pb
0.252255 0.251089 0.500309 Pb
0.503762 0.501265 0.252989 Pb
0.252874 0.500336 0.500364 Pb
0.252538 0.500736 0.250869 Pb
0.503554 0.500624 0.499909 Pb
0.485565 0.625852 0.731193 Br
0.737325 0.625899 0.487427 Br
0.730540 0.375607 0.735019 Br
0.479033 0.376325 0.486909 Br
0.270447 0.625995 0.267848 Br
0.517665 0.626412 0.518225 Br
0.515984 0.376020 0.263511 Br
0.267713 0.375762 0.521880 Br
0.374140 0.483249 0.726021 Br
0.625445 0.481180 0.476862 Br
0.474275 0.518285 0.375458 Br
0.725246 0.517853 0.624882 Br
0.526968 0.269149 0.626944 Br
0.277121 0.269798 0.376610 Br
0.626586 0.732289 0.276454 Br
0.376279 0.733540 0.526625 Br
0.374027 0.268152 0.724878 Br
0.624885 0.268794 0.474350 Br
0.473460 0.734352 0.374578 Br
0.724191 0.734541 0.624725 Br
0.627335 0.526138 0.272879 Br
0.377279 0.519163 0.527155 Br
0.527178 0.482241 0.627042 Br
0.277758 0.481557 0.376848 Br
0.616758 0.563478 0.382893 Cs
