Cs64 Pb64 Br191
1.0
16.840035 0.000000 16.155961
0.000000 23.527616 0.000000
-16.840035 0.000000 16.155961
Cs Pb Br Cs Pb Br
56 56 168 8 8 23
direct
0.885848 0.875100 0.353629 Cs
0.135283 0.875322 0.604018 Cs
0.886151 0.374584 0.353264 Cs
0.136567 0.373782 0.606675 Cs
0.886077 0.875043 0.853927 Cs
0.135706 0.875113 0.103156 Cs
0.386414 0.875498 0.354477 Cs
0.634971 0.873975 0.603489 Cs
0.885913 0.374913 0.853637 Cs
0.135959 0.374770 0.103357 Cs
0.386157 0.875069 0.853680 Cs
0.636105 0.875095 0.103496 Cs
0.385693 0.374620 0.854070 Cs
0.636110 0.374788 0.103396 Cs
0.103248 0.124983 0.385931 Cs
0.353061 0.123116 0.637095 Cs
0.104467 0.626515 0.385660 Cs
0.103434 0.124831 0.886146 Cs
0.353742 0.124794 0.135857 Cs
0.603635 0.124915 0.385555 Cs
0.853500 0.124853 0.636086 Cs
0.103474 0.625021 0.886355 Cs
0.353672 0.625144 0.135502 Cs
0.853458 0.625872 0.638324 Cs
0.603831 0.124659 0.886476 Cs
0.853405 0.124829 0.135916 Cs
0.603906 0.624814 0.886122 Cs
0.853831 0.625173 0.135954 Cs
0.896422 0.875053 0.113877 Cs
0.146235 0.875687 0.363749 Cs
0.896213 0.374909 0.114001 Cs
0.145988 0.372278 0.361173 Cs
0.895809 0.875122 0.613874 Cs
0.146213 0.875104 0.864158 Cs
0.396121 0.875005 0.113951 Cs
0.646209 0.873300 0.365588 Cs
0.897138 0.374164 0.614534 Cs
0.146427 0.374896 0.863845 Cs
0.396109 0.374774 0.113412 Cs
0.396078 0.876674 0.614165 Cs
0.646357 0.875004 0.864021 Cs
0.645965 0.374851 0.864126 Cs
0.113587 0.124774 0.146119 Cs
0.363967 0.124747 0.396654 Cs
0.114129 0.625101 0.146668 Cs
0.113917 0.124880 0.646535 Cs
0.363896 0.124960 0.896351 Cs
0.614015 0.124778 0.146395 Cs
0.863828 0.124936 0.396432 Cs
0.113566 0.625694 0.648740 Cs
0.363936 0.625128 0.896830 Cs
0.613581 0.625166 0.146516 Cs
0.863754 0.625712 0.393737 Cs
0.614263 0.124600 0.646197 Cs
0.863976 0.124879 0.896684 Cs
0.864004 0.625141 0.896813 Cs
0.749888 0.750303 0.249829 Pb
0.999591 0.750216 0.500066 Pb
0.750068 0.249572 0.249802 Pb
-0.000047 0.250053 0.500014 Pb
0.749782 0.750151 0.749992 Pb
0.999961 0.749943 0.000021 Pb
0.249472 0.751128 0.249373 Pb
0.496767 0.747990 0.500526 Pb
0.750401 0.249395 0.750382 Pb
0.999943 0.249930 0.000033 Pb
0.249860 0.750421 0.750219 Pb
0.499940 0.750026 0.999837 Pb
0.249337 0.249114 0.750638 Pb
0.500104 0.249660 0.000158 Pb
0.999921 0.750367 0.249851 Pb
0.248705 0.751422 0.499805 Pb
0.999695 0.249563 0.249727 Pb
0.999893 0.750383 0.750203 Pb
0.249887 0.750237 0.999964 Pb
0.500177 0.750664 0.249496 Pb
0.749929 0.749294 0.500036 Pb
0.999754 0.249646 0.750173 Pb
0.249884 0.249696 -0.000012 Pb
0.749879 0.249992 0.499939 Pb
0.500018 0.749561 0.750313 Pb
0.749990 0.750025 0.000005 Pb
0.500781 0.248497 0.750735 Pb
0.750038 0.249797 0.000032 Pb
0.999876 0.999926 0.249910 Pb
0.249644 0.000446 0.499884 Pb
0.000026 0.499900 0.249808 Pb
0.999897 -0.000003 0.750090 Pb
0.249932 0.000000 -0.000018 Pb
0.500094 -0.000290 0.249950 Pb
0.749918 -0.000027 0.500027 Pb
0.999844 0.500018 0.750369 Pb
0.249893 0.499918 0.000020 Pb
0.753593 0.500425 0.500322 Pb
0.500261 0.999567 0.750242 Pb
0.750028 0.999844 0.000047 Pb
0.499579 0.499744 0.750176 Pb
0.750079 0.499941 0.999986 Pb
0.749870 -0.000202 0.250032 Pb
0.999856 0.000211 0.499976 Pb
0.749932 0.500140 0.249457 Pb
0.999167 0.500744 0.500489 Pb
0.749979 0.999609 0.749999 Pb
0.999936 -0.000072 -0.000005 Pb
0.249926 0.000206 0.249888 Pb
0.500147 -0.000018 0.500041 Pb
0.750134 0.500508 0.750237 Pb
0.999953 0.499988 0.000051 Pb
0.249748 0.999604 0.750210 Pb
0.499964 0.999828 0.000018 Pb
0.250293 0.500551 0.750398 Pb
0.500006 0.499755 1.000020 Pb
0.983999 0.124868 0.230455 Br
0.233800 0.126447 0.480701 Br
0.984584 0.624831 0.231328 Br
0.241536 0.624199 0.479153 Br
0.984169 0.124962 0.730359 Br
0.234160 0.124932 0.980364 Br
0.484409 0.124825 0.230967 Br
0.733584 0.125478 0.480694 Br
0.984052 0.624938 0.731423 Br
0.234286 0.624860 0.981078 Br
0.483336 0.624642 0.232839 Br
0.484783 0.124132 0.729998 Br
0.734350 0.124889 0.980911 Br
0.734207 0.624844 0.980877 Br
0.229877 0.875341 0.233746 Br
0.484401 0.871757 0.485811 Br
0.232013 0.374569 0.233712 Br
0.230134 0.874691 0.734053 Br
0.480357 0.874823 0.984390 Br
0.729489 0.874888 0.235055 Br
0.980466 0.874965 0.484627 Br
0.233544 0.375119 0.734700 Br
0.480546 0.374933 0.984238 Br
0.731501 0.375021 0.233510 Br
0.981148 0.376157 0.484137 Br
0.729657 0.874734 0.733616 Br
0.980736 0.874865 0.984447 Br
0.980493 0.375089 0.984486 Br
0.769377 0.124933 0.265893 Br
0.019299 0.125566 0.515722 Br
0.768791 0.624887 0.264930 Br
0.021701 0.624575 0.516031 Br
0.769571 0.124637 0.765865 Br
0.019051 0.124980 0.015606 Br
0.270176 0.124894 0.266144 Br
0.519206 0.124257 0.515156 Br
0.769040 0.625012 0.766957 Br
0.019571 0.624821 0.015974 Br
0.267991 0.124535 0.766433 Br
0.519345 0.124845 0.015933 Br
0.270867 0.625096 0.765184 Br
0.519056 0.624697 0.015505 Br
0.015487 0.874969 0.269685 Br
0.264150 0.875820 0.519342 Br
0.015156 0.374852 0.268902 Br
0.015683 0.874978 0.769493 Br
0.265604 0.874964 0.019442 Br
0.515912 0.874837 0.270328 Br
0.764214 0.874471 0.519002 Br
0.015716 0.375064 0.768756 Br
0.265575 0.375010 0.018902 Br
0.766019 0.375703 0.520105 Br
0.515838 0.874083 0.768502 Br
0.765713 0.874853 0.019516 Br
0.514336 0.374240 0.768444 Br
0.765636 0.375009 0.019216 Br
0.873838 0.981885 0.224620 Br
0.123820 0.982439 0.474461 Br
0.873893 0.482256 0.224819 Br
0.128249 0.481571 0.473883 Br
0.873795 0.981895 0.724534 Br
0.123878 0.982096 0.974586 Br
0.373871 0.981807 0.224724 Br
0.623731 0.982355 0.474491 Br
0.873957 0.482308 0.724139 Br
0.123935 0.481970 0.974522 Br
0.373843 0.482364 0.224129 Br
0.373816 0.982255 0.724964 Br
0.623813 0.981981 0.974567 Br
0.623743 0.482056 0.974544 Br
0.974450 0.018018 0.374002 Br
0.224461 0.017914 0.623810 Br
0.975266 0.518186 0.374864 Br
0.225706 0.520895 0.622939 Br
0.974461 0.017925 0.873893 Br
0.224538 0.018103 0.123960 Br
0.474376 0.017600 0.374209 Br
0.724490 0.017772 0.623846 Br
0.974523 0.517862 0.873846 Br
0.224522 0.517433 0.124374 Br
0.474545 0.017891 0.873871 Br
0.724479 0.017829 0.123965 Br
0.474264 0.517440 0.873064 Br
0.724349 0.518004 0.124202 Br
0.025443 0.767908 0.126220 Br
0.275615 0.768137 0.376021 Br
0.025443 0.267909 0.126149 Br
0.025344 0.767850 0.626084 Br
0.275514 0.767983 0.875935 Br
0.525482 0.767931 0.126171 Br
0.775340 0.767801 0.376269 Br
0.025342 0.267909 0.626009 Br
0.275154 0.267870 0.876206 Br
0.525460 0.267934 0.126296 Br
0.775246 0.268220 0.376263 Br
0.525434 0.764136 0.625733 Br
0.775318 0.768058 0.875954 Br
0.775476 0.267776 0.876121 Br
0.126180 0.231934 0.275407 Br
0.376222 0.229458 0.526548 Br
0.125969 0.732585 0.275468 Br
0.125696 0.232139 0.775642 Br
0.376075 0.232021 0.025408 Br
0.626070 0.232246 0.275673 Br
0.875767 0.232291 0.525392 Br
0.126120 0.731918 0.775657 Br
0.376087 0.732127 0.025461 Br
0.875895 0.731055 0.525624 Br
0.626210 0.231881 0.775774 Br
0.876066 0.232073 0.025581 Br
0.625863 0.731590 0.775269 Br
0.876052 0.732031 0.025443 Br
0.873697 0.767984 0.224607 Br
0.123088 0.767953 0.473544 Br
0.873883 0.267827 0.224594 Br
0.124212 0.269496 0.475626 Br
0.873804 0.768009 0.724466 Br
0.123908 0.767911 0.974480 Br
0.373767 0.767692 0.225092 Br
0.622785 0.761757 0.476218 Br
0.873775 0.267769 0.724472 Br
0.123883 0.267993 0.974531 Br
0.373927 0.267354 0.223755 Br
0.373828 0.768341 0.724194 Br
0.623806 0.767909 0.974515 Br
0.623856 0.267923 0.974620 Br
0.974618 0.232121 0.374041 Br
0.224807 0.232084 0.624008 Br
0.974658 0.732026 0.374028 Br
0.223916 0.732027 0.623641 Br
0.974383 0.232086 0.873841 Br
0.224344 0.231833 0.124152 Br
0.474361 0.231929 0.374083 Br
0.724452 0.232150 0.623860 Br
0.974488 0.732045 0.873898 Br
0.224420 0.732379 0.123843 Br
0.474937 0.231769 0.873954 Br
0.724420 0.231979 0.124063 Br
0.474417 0.731868 0.873864 Br
0.724368 0.732090 0.123970 Br
0.126084 0.018102 0.275510 Br
0.376171 0.017442 0.525402 Br
0.126331 0.516517 0.277122 Br
0.125973 0.017821 0.775470 Br
0.376081 0.017914 0.025400 Br
0.625980 0.017823 0.275603 Br
0.875967 0.017915 0.525462 Br
0.126389 0.517916 0.775165 Br
0.376095 0.517828 0.025376 Br
0.877343 0.518717 0.525664 Br
0.625986 0.017975 0.775508 Br
0.876040 0.017854 0.025479 Br
0.625554 0.517887 0.774087 Br
0.876070 0.517961 0.025492 Br
0.025388 0.982054 0.126181 Br
0.275424 0.982120 0.376189 Br
0.025565 0.482150 0.126442 Br
0.025193 0.982246 0.626025 Br
0.275415 0.981879 0.876044 Br
0.525352 0.981884 0.126235 Br
0.775257 0.982003 0.376243 Br
0.025690 0.482020 0.625726 Br
0.275645 0.482374 0.875580 Br
0.525402 0.482166 0.125979 Br
0.775599 0.481776 0.376545 Br
0.525548 0.982204 0.625992 Br
0.775358 0.981897 0.876052 Br
0.775276 0.482214 0.876015 Br
0.384728 0.372346 0.347578 Cs
0.638487 0.373787 0.607714 Cs
0.599625 0.625930 0.385933 Cs
0.354072 0.630713 0.636018 Cs
0.397134 0.365617 0.621296 Cs
0.648406 0.375136 0.362106 Cs
0.610849 0.624534 0.643659 Cs
0.363646 0.628978 0.385103 Cs
0.249952 0.249046 0.249664 Pb
0.499680 0.249479 0.499777 Pb
0.500186 0.249499 0.249714 Pb
0.250268 0.250206 0.500254 Pb
0.500140 0.499443 0.249455 Pb
0.245172 0.498922 0.499443 Pb
0.249709 0.499354 0.249671 Pb
0.504765 0.494313 0.497097 Pb
0.483140 0.623959 0.730045 Br
0.733712 0.623900 0.478221 Br
0.732467 0.375010 0.736228 Br
0.467992 0.373560 0.484518 Br
0.264954 0.624889 0.261792 Br
0.516905 0.374850 0.269344 Br
0.268974 0.376855 0.523824 Br
0.373782 0.483193 0.720347 Br
0.622529 0.484905 0.474649 Br
0.472109 0.516621 0.374059 Br
0.724299 0.518480 0.623399 Br
0.525857 0.267562 0.625940 Br
0.275104 0.268008 0.376406 Br
0.625867 0.731599 0.275794 Br
0.373795 0.739937 0.527810 Br
0.373851 0.262862 0.728750 Br
0.623170 0.271797 0.475209 Br
0.474843 0.733103 0.373879 Br
0.723765 0.730227 0.623848 Br
0.625804 0.518213 0.276440 Br
0.522787 0.478878 0.623371 Br
0.278508 0.482231 0.377704 Br
0.484595 0.616694 0.517479 Br
