Cs64 Pb64 Br191
1.0
16.840035 0.000000 16.155961
0.000000 23.527616 0.000000
-16.840035 0.000000 16.155961
Cs Pb Br Cs Pb Br
56 56 168 8 8 23
direct
0.886055 0.875212 0.353397 Cs
0.136091 0.875047 0.603491 Cs
0.886687 0.374141 0.351424 Cs
0.136300 0.374298 0.606404 Cs
0.886435 0.875187 0.853870 Cs
0.136026 0.875097 0.103315 Cs
0.385778 0.875300 0.353687 Cs
0.635972 0.875103 0.603184 Cs
0.885798 0.374922 0.853198 Cs
0.136079 0.374878 0.103395 Cs
0.386005 0.875173 0.853703 Cs
0.636082 0.875029 0.103595 Cs
0.386632 0.374803 0.853220 Cs
0.636006 0.374814 0.102450 Cs
0.103696 0.124864 0.386048 Cs
0.353588 0.124910 0.635883 Cs
0.102616 0.625880 0.385298 Cs
0.103640 0.124937 0.886137 Cs
0.353423 0.124915 0.135817 Cs
0.603638 0.124727 0.385831 Cs
0.853893 0.124624 0.636056 Cs
0.103847 0.625034 0.885947 Cs
0.354330 0.625183 0.136024 Cs
0.854008 0.627760 0.638959 Cs
0.603749 0.125009 0.885906 Cs
0.853868 0.124837 0.135857 Cs
0.603876 0.625102 0.886379 Cs
0.853613 0.625167 0.136189 Cs
0.896485 0.875153 0.113826 Cs
0.146526 0.875107 0.363877 Cs
0.896337 0.374993 0.113627 Cs
0.146632 0.374012 0.362365 Cs
0.896536 0.875069 0.613943 Cs
0.146511 0.875170 0.864103 Cs
0.396166 0.875351 0.113530 Cs
0.646858 0.876058 0.363086 Cs
0.895786 0.373308 0.614431 Cs
0.146244 0.374852 0.863958 Cs
0.396106 0.375118 0.113855 Cs
0.396317 0.875058 0.614097 Cs
0.646393 0.875141 0.864195 Cs
0.646383 0.374883 0.864483 Cs
0.113887 0.124895 0.146045 Cs
0.363933 0.124851 0.396370 Cs
0.113962 0.625124 0.146253 Cs
0.114057 0.124854 0.646203 Cs
0.363954 0.124838 0.896580 Cs
0.613863 0.124845 0.146061 Cs
0.864271 0.124857 0.396574 Cs
0.113736 0.625433 0.646842 Cs
0.363978 0.625165 0.896783 Cs
0.614088 0.625397 0.146013 Cs
0.863440 0.626569 0.393108 Cs
0.613722 0.124199 0.646231 Cs
0.864349 0.124816 0.897022 Cs
0.864053 0.625223 0.896682 Cs
0.750523 0.750883 0.249451 Pb
0.000014 0.749976 0.499984 Pb
0.750310 0.249473 0.249588 Pb
0.000080 0.249808 0.499923 Pb
0.749992 0.750764 0.750248 Pb
0.000058 0.750010 -0.000046 Pb
0.249699 0.750435 0.249719 Pb
0.500145 0.749851 0.500198 Pb
0.750789 0.248316 0.750886 Pb
0.000039 0.250068 -0.000039 Pb
0.249814 0.750461 0.750268 Pb
0.499896 0.750293 -0.000179 Pb
0.249978 0.249547 0.750278 Pb
0.499990 0.249844 0.000148 Pb
0.000217 0.750387 0.249817 Pb
0.250038 0.749790 0.499875 Pb
0.000116 0.249647 0.249795 Pb
0.000232 0.750457 0.750244 Pb
0.249930 0.750104 -0.000012 Pb
0.499263 0.751475 0.249344 Pb
0.749727 0.749703 0.499698 Pb
0.000097 0.249585 0.750153 Pb
0.250014 0.249950 -0.000054 Pb
0.749966 0.249525 0.500136 Pb
0.499963 0.750311 0.750241 Pb
0.750093 0.750269 0.000017 Pb
0.499595 0.248965 0.750567 Pb
0.750112 0.249673 0.000024 Pb
0.000066 -0.000009 0.249934 Pb
0.250006 -0.000119 0.499989 Pb
0.000170 0.499946 0.249695 Pb
0.000075 0.000069 0.750054 Pb
0.249978 0.000074 -0.000045 Pb
0.499848 0.000386 0.249820 Pb
0.750088 -0.000321 0.499997 Pb
-0.000048 0.500071 0.750182 Pb
0.249946 0.500001 -0.000020 Pb
0.755057 0.500992 0.500740 Pb
0.499984 -0.000320 0.750124 Pb
0.750026 -0.000037 -0.000010 Pb
0.499780 0.500165 0.750268 Pb
0.750129 0.500128 -0.000043 Pb
0.750160 0.000378 0.249855 Pb
0.000038 -0.000250 0.499959 Pb
0.749815 0.499558 0.249481 Pb
0.000857 0.499397 0.499529 Pb
0.750074 -0.000447 0.750081 Pb
0.000053 0.000002 -0.000002 Pb
0.249947 0.000157 0.249897 Pb
0.499934 -0.000336 0.499922 Pb
0.750294 0.500655 0.750349 Pb
0.000025 0.499947 -0.000070 Pb
0.249990 -0.000016 0.750055 Pb
0.500019 0.000037 -0.000032 Pb
0.250127 0.499991 0.750483 Pb
0.500001 0.500112 0.000020 Pb
0.984394 0.125041 0.230477 Br
0.234589 0.125234 0.480972 Br
0.984255 0.624934 0.231306 Br
0.233778 0.624295 0.478569 Br
0.984472 0.125002 0.730163 Br
0.234346 0.125099 0.980483 Br
0.484121 0.125591 0.230251 Br
0.734230 0.125276 0.480656 Br
0.984829 0.625154 0.731182 Br
0.234378 0.624930 0.980689 Br
0.485939 0.625427 0.232708 Br
0.484173 0.124466 0.730685 Br
0.734245 0.124980 0.980441 Br
0.734366 0.624977 0.981035 Br
0.230434 0.875133 0.234090 Br
0.480512 0.873902 0.484694 Br
0.231220 0.374969 0.233665 Br
0.230371 0.874974 0.734054 Br
0.480597 0.875056 0.984056 Br
0.731821 0.875468 0.233616 Br
0.980393 0.874481 0.484227 Br
0.231587 0.375067 0.734947 Br
0.480930 0.375191 0.984413 Br
0.730421 0.374861 0.232854 Br
0.978552 0.375497 0.483943 Br
0.729722 0.874837 0.733764 Br
0.980891 0.874952 0.984409 Br
0.980275 0.375121 0.983978 Br
0.770214 0.125379 0.266078 Br
0.018935 0.125143 0.515485 Br
0.766482 0.624822 0.265181 Br
0.019068 0.624001 0.515821 Br
0.770512 0.124260 0.766384 Br
0.019132 0.125116 0.015497 Br
0.269832 0.125086 0.265843 Br
0.519167 0.125161 0.514959 Br
0.768162 0.625220 0.766436 Br
0.019552 0.624871 0.015428 Br
0.269838 0.124948 0.765711 Br
0.519590 0.125113 0.015486 Br
0.268041 0.625051 0.767253 Br
0.519207 0.625019 0.015670 Br
0.015851 0.875028 0.269643 Br
0.266125 0.874363 0.519077 Br
0.016251 0.375034 0.268788 Br
0.015998 0.875111 0.769489 Br
0.265652 0.875018 0.019078 Br
0.515348 0.875741 0.269865 Br
0.765884 0.873967 0.518853 Br
0.015459 0.375090 0.768627 Br
0.265734 0.375092 0.019246 Br
0.758958 0.376290 0.523184 Br
0.515866 0.874543 0.769533 Br
0.765755 0.874986 0.019536 Br
0.517152 0.374655 0.766530 Br
0.765782 0.375072 0.018619 Br
0.873952 0.982147 0.224512 Br
0.123920 0.982038 0.474539 Br
0.873642 0.482155 0.224784 Br
0.122848 0.481403 0.474375 Br
0.873887 0.981849 0.724472 Br
0.123928 0.982153 0.974533 Br
0.373978 0.982067 0.224526 Br
0.623887 0.982108 0.474483 Br
0.873727 0.483526 0.722872 Br
0.123920 0.482002 0.974515 Br
0.374359 0.482280 0.225645 Br
0.373970 0.981954 0.724486 Br
0.623910 0.982081 0.974582 Br
0.623916 0.482197 0.974562 Br
0.974595 0.017915 0.373957 Br
0.224646 0.017880 0.623799 Br
0.974211 0.518038 0.374270 Br
0.224337 0.518507 0.623432 Br
0.974625 0.017928 0.873815 Br
0.224587 0.018007 0.123919 Br
0.474566 0.017939 0.373969 Br
0.724691 0.017847 0.623773 Br
0.974402 0.517835 0.873578 Br
0.224726 0.517896 0.123978 Br
0.474622 0.017944 0.873802 Br
0.724592 0.018108 0.123949 Br
0.474651 0.517665 0.873577 Br
0.724344 0.517829 0.124430 Br
0.025574 0.767908 0.126149 Br
0.275597 0.767802 0.376092 Br
0.025467 0.267987 0.126108 Br
0.025318 0.767885 0.625969 Br
0.275516 0.768083 0.875956 Br
0.525119 0.768097 0.125988 Br
0.775289 0.767959 0.375988 Br
0.025240 0.267922 0.625927 Br
0.275668 0.268008 0.876058 Br
0.525568 0.268178 0.126244 Br
0.775169 0.268638 0.376431 Br
0.525528 0.767844 0.625931 Br
0.775594 0.768140 0.875844 Br
0.775705 0.267378 0.876275 Br
0.126154 0.232001 0.275502 Br
0.376011 0.232538 0.525243 Br
0.126209 0.732216 0.275380 Br
0.126226 0.232055 0.775406 Br
0.376182 0.232113 0.025532 Br
0.626190 0.232080 0.275656 Br
0.875880 0.232473 0.525678 Br
0.126082 0.732213 0.775445 Br
0.376142 0.732074 0.025372 Br
0.875802 0.730280 0.524268 Br
0.626305 0.232515 0.774441 Br
0.876079 0.232078 0.025550 Br
0.626086 0.732299 0.775857 Br
0.876093 0.732005 0.025462 Br
0.874232 0.767849 0.224399 Br
0.124071 0.767759 0.474544 Br
0.873880 0.268040 0.224386 Br
0.123752 0.268539 0.474574 Br
0.873822 0.768091 0.724544 Br
0.123914 0.767919 0.974446 Br
0.373795 0.768108 0.224167 Br
0.623829 0.769174 0.473477 Br
0.874069 0.267243 0.724526 Br
0.123919 0.267977 0.974548 Br
0.374034 0.268147 0.224598 Br
0.373936 0.768024 0.724527 Br
0.623912 0.767925 0.974583 Br
0.623923 0.267843 0.974491 Br
0.974524 0.232107 0.373905 Br
0.224635 0.232197 0.623835 Br
0.974713 0.732209 0.373945 Br
0.224604 0.731855 0.623768 Br
0.974522 0.232083 0.873798 Br
0.224571 0.231979 0.123954 Br
0.474529 0.232188 0.373910 Br
0.724664 0.231461 0.624147 Br
0.974545 0.732118 0.873827 Br
0.224601 0.732100 0.123877 Br
0.474445 0.232085 0.874100 Br
0.724514 0.231888 0.124128 Br
0.474553 0.731977 0.873735 Br
0.724756 0.732104 0.123782 Br
0.126155 0.018043 0.275460 Br
0.376211 0.017796 0.525394 Br
0.126058 0.517882 0.275686 Br
0.126138 0.018067 0.775378 Br
0.376158 0.017967 0.025405 Br
0.626149 0.018091 0.275320 Br
0.876025 0.017805 0.525394 Br
0.126206 0.517640 0.775143 Br
0.376222 0.517934 0.025526 Br
0.871854 0.518833 0.526110 Br
0.626138 0.018028 0.775350 Br
0.876095 0.017870 0.025411 Br
0.626139 0.517489 0.775586 Br
0.876057 0.518067 0.025516 Br
0.025489 0.982067 0.126122 Br
0.275413 0.982159 0.376147 Br
0.025449 0.482103 0.126189 Br
0.025462 0.981999 0.625962 Br
0.275477 0.982068 0.876019 Br
0.525480 0.982042 0.126137 Br
0.775507 0.982178 0.376161 Br
0.024713 0.481853 0.625158 Br
0.275776 0.481910 0.875782 Br
0.525997 0.482526 0.126690 Br
0.774281 0.478591 0.377096 Br
0.525466 0.982050 0.625926 Br
0.775464 0.981847 0.876020 Br
0.775554 0.482742 0.875715 Br
0.386208 0.374599 0.353868 Cs
0.635902 0.367607 0.617926 Cs
0.601184 0.633108 0.378975 Cs
0.351983 0.627431 0.639224 Cs
0.396518 0.372369 0.614290 Cs
0.646832 0.370204 0.360593 Cs
0.614658 0.626809 0.650383 Cs
0.363041 0.625358 0.392698 Cs
0.249993 0.249642 0.249812 Pb
0.499758 0.249493 0.499569 Pb
0.499706 0.249833 0.249591 Pb
0.249712 0.250118 0.499910 Pb
0.500297 0.499848 0.249871 Pb
0.246391 0.500053 0.499708 Pb
0.249777 0.499820 0.249693 Pb
0.492462 0.502963 0.503474 Pb
0.483729 0.624609 0.730623 Br
0.730968 0.623236 0.475898 Br
0.735836 0.374700 0.738849 Br
0.484739 0.377137 0.484779 Br
0.268592 0.624959 0.264339 Br
0.528278 0.623651 0.514721 Br
0.515582 0.375356 0.270273 Br
0.265595 0.375931 0.520222 Br
0.374173 0.481917 0.723051 Br
0.478773 0.518631 0.376323 Br
0.721906 0.517747 0.622349 Br
0.522852 0.264687 0.626056 Br
0.275457 0.268171 0.376166 Br
0.626127 0.736426 0.271820 Br
0.376603 0.728706 0.524534 Br
0.374040 0.267728 0.724844 Br
0.623776 0.269288 0.476238 Br
0.474103 0.732522 0.373904 Br
0.724838 0.731787 0.623571 Br
0.626314 0.515959 0.279783 Br
0.377087 0.520683 0.526674 Br
0.528644 0.481911 0.625447 Br
0.275368 0.481876 0.376647 Br
