Cs8 Pb8 Br23                            
   1.0000000000000000     
     8.4564889999999995    0.0000000000000000    8.0403009999999995
     0.0000000000000000   11.7298469999999995    0.0000000000000000
    -8.4564889999999995    0.0000000000000000    8.0403009999999995
   Cs   Pb   Br
     8     8    23
Direct
  0.2661450000000016  0.2467619999999968  0.1984009999999969
  0.7768960000000007  0.2448809999999995  0.7149969999999968
  0.7196029999999993  0.7526859999999971  0.2638579999999990
  0.2008269999999968  0.7547959999999989  0.7777260000000012
  0.2909569999999988  0.2379889999999989  0.7454079999999976
  0.7930670000000006  0.2484409999999997  0.2248480000000015
  0.7345639999999989  0.7493630000000024  0.8073869999999985
  0.2250719999999973  0.7539159999999967  0.2633769999999984
  0.9963260000000034  0.0009349999999984  0.9995890000000003
  0.4948660000000018  0.0035930000000022  0.5002569999999977
  0.4999439999999993  0.9968390000000014  0.0004380000000026
  0.0004440000000017  0.0037489999999991  0.4999719999999996
  0.5003999999999991  0.4980669999999989  0.0002899999999997
  0.0036569999999969  0.5037769999999995  0.5004050000000007
  0.9999719999999996  0.4987799999999964  0.9999499999999983
  0.5116560000000021  0.4878229999999988  0.4980249999999984
  0.4690670000000026  0.7476190000000003  0.9634309999999999
  0.9795009999999991  0.7530679999999990  0.4585900000000009
  0.9708359999999985  0.2500610000000023  0.9691630000000018
  0.4446200000000005  0.2443200000000019  0.4722179999999980
  0.0136960000000030  0.7496930000000006  0.0261110000000002
  0.5257170000000002  0.2476559999999992  0.0340950000000007
  0.0352109999999968  0.2560860000000034  0.5412930000000031
  0.2472920000000016  0.4714049999999972  0.9468779999999981
  0.7619499999999988  0.4745959999999982  0.4468400000000017
  0.4552400000000034  0.5333490000000012  0.2488740000000007
  0.9497280000000003  0.5351909999999975  0.7462650000000011
  0.5520289999999974  0.0279200000000017  0.7513199999999998
  0.0470510000000033  0.0358429999999998  0.2524879999999996
  0.7496569999999991  0.9709229999999991  0.0519370000000023
  0.2499549999999999  0.9699919999999977  0.5562400000000025
  0.2455020000000019  0.0217499999999973  0.9576619999999991
  0.7423489999999973  0.0369159999999980  0.4527240000000035
  0.4559179999999969  0.9597389999999990  0.2504890000000017
  0.9478089999999995  0.9659249999999986  0.7472569999999976
  0.7521070000000023  0.5273880000000020  0.0524989999999974
  0.5517070000000004  0.4615650000000002  0.7482809999999986
  0.0558529999999990  0.4682030000000026  0.2539900000000017
  0.3755000000000024  0.6567369999999997  0.5363449999999972

  0.00000000E+00  0.00000000E+00  0.00000000E+00
  0.00000000E+00  0.00000000E+00  0.00000000E+00
  0.00000000E+00  0.00000000E+00  0.00000000E+00
  0.00000000E+00  0.00000000E+00  0.00000000E+00
  0.00000000E+00  0.00000000E+00  0.00000000E+00
  0.00000000E+00  0.00000000E+00  0.00000000E+00
  0.00000000E+00  0.00000000E+00  0.00000000E+00
  0.00000000E+00  0.00000000E+00  0.00000000E+00
  0.00000000E+00  0.00000000E+00  0.00000000E+00
  0.00000000E+00  0.00000000E+00  0.00000000E+00
  0.00000000E+00  0.00000000E+00  0.00000000E+00
  0.00000000E+00  0.00000000E+00  0.00000000E+00
  0.00000000E+00  0.00000000E+00  0.00000000E+00
  0.00000000E+00  0.00000000E+00  0.00000000E+00
  0.00000000E+00  0.00000000E+00  0.00000000E+00
  0.00000000E+00  0.00000000E+00  0.00000000E+00
  0.00000000E+00  0.00000000E+00  0.00000000E+00
  0.00000000E+00  0.00000000E+00  0.00000000E+00
  0.00000000E+00  0.00000000E+00  0.00000000E+00
  0.00000000E+00  0.00000000E+00  0.00000000E+00
  0.00000000E+00  0.00000000E+00  0.00000000E+00
  0.00000000E+00  0.00000000E+00  0.00000000E+00
  0.00000000E+00  0.00000000E+00  0.00000000E+00
  0.00000000E+00  0.00000000E+00  0.00000000E+00
  0.00000000E+00  0.00000000E+00  0.00000000E+00
  0.00000000E+00  0.00000000E+00  0.00000000E+00
  0.00000000E+00  0.00000000E+00  0.00000000E+00
  0.00000000E+00  0.00000000E+00  0.00000000E+00
  0.00000000E+00  0.00000000E+00  0.00000000E+00
  0.00000000E+00  0.00000000E+00  0.00000000E+00
  0.00000000E+00  0.00000000E+00  0.00000000E+00
  0.00000000E+00  0.00000000E+00  0.00000000E+00
  0.00000000E+00  0.00000000E+00  0.00000000E+00
  0.00000000E+00  0.00000000E+00  0.00000000E+00
  0.00000000E+00  0.00000000E+00  0.00000000E+00
  0.00000000E+00  0.00000000E+00  0.00000000E+00
  0.00000000E+00  0.00000000E+00  0.00000000E+00
  0.00000000E+00  0.00000000E+00  0.00000000E+00
  0.00000000E+00  0.00000000E+00  0.00000000E+00
