Cs8 Pb8 Br23
1.0
8.456489 0.000000 8.040301
0.000000 11.729847 0.000000
-8.456489 0.000000 8.040301
Cs Pb Br
8 8 23
direct
0.266145 0.246762 0.198401 Cs
0.776896 0.244881 0.714997 Cs
0.719603 0.752686 0.263858 Cs
0.200827 0.754796 0.777726 Cs
0.290957 0.237989 0.745408 Cs
0.793067 0.248441 0.224848 Cs
0.734564 0.749363 0.807387 Cs
0.225072 0.753916 0.263377 Cs
-0.003674 0.000935 -0.000411 Pb
0.494866 0.003593 0.500257 Pb
0.499944 -0.003161 0.000438 Pb
0.000444 0.003749 0.499972 Pb
0.500400 0.498067 0.000290 Pb
0.003657 0.503777 0.500405 Pb
-0.000028 0.498780 -0.000050 Pb
0.511656 0.487823 0.498025 Pb
0.469067 0.747619 0.963431 Br
0.979501 0.753068 0.458590 Br
0.970836 0.250061 0.969163 Br
0.444620 0.244320 0.472218 Br
0.013696 0.749693 0.026111 Br
0.525717 0.247656 0.034095 Br
0.035211 0.256086 0.541293 Br
0.247292 0.471405 0.946878 Br
0.761950 0.474596 0.446840 Br
0.455240 0.533349 0.248874 Br
0.949728 0.535191 0.746265 Br
0.552029 0.027920 0.751320 Br
0.047051 0.035843 0.252488 Br
0.749657 0.970923 0.051937 Br
0.249955 0.969992 0.556240 Br
0.245502 0.021750 0.957662 Br
0.742349 0.036916 0.452724 Br
0.455918 0.959739 0.250489 Br
0.947809 0.965925 0.747257 Br
0.752107 0.527388 0.052499 Br
0.551707 0.461565 0.748281 Br
0.055853 0.468203 0.253990 Br
0.375500 0.656737 0.536345 Br
