Cs8 Pb8 Br24
1.0
11.735352 0.000000 0.000000
0.000000 11.735352 0.000000
0.000000 0.000000 11.735352
Cs Pb Br
8 8 24
direct
0.250000 0.250000 0.250000 Cs
0.250000 0.250000 0.750000 Cs
0.250000 0.750000 0.250000 Cs
0.250000 0.750000 0.750000 Cs
0.750000 0.250000 0.250000 Cs
0.750000 0.250000 0.750000 Cs
0.750000 0.750000 0.250000 Cs
0.750000 0.750000 0.750000 Cs
0.000000 0.000000 0.000000 Pb
0.000000 0.000000 0.500000 Pb
0.000000 0.500000 0.000000 Pb
0.000000 0.500000 0.500000 Pb
0.500000 0.000000 0.000000 Pb
0.500000 0.000000 0.500000 Pb
0.500000 0.500000 0.000000 Pb
0.500000 0.500000 0.500000 Pb
0.966250 0.250000 0.037500 Br
0.966250 0.250000 0.462500 Br
0.033750 0.750000 0.962500 Br
0.033750 0.750000 0.537500 Br
0.533750 0.250000 0.962500 Br
0.533750 0.250000 0.537500 Br
0.466250 0.750000 0.037500 Br
0.466250 0.750000 0.462500 Br
0.037500 0.962500 0.250000 Br
0.962500 0.037500 0.750000 Br
0.962500 0.537500 0.250000 Br
0.037500 0.462500 0.750000 Br
0.462500 0.037500 0.250000 Br
0.537500 0.962500 0.750000 Br
0.537500 0.462500 0.250000 Br
0.462500 0.537500 0.750000 Br
0.250000 0.033750 0.962500 Br
0.250000 0.033750 0.537500 Br
0.250000 0.466250 0.037500 Br
0.250000 0.466250 0.462500 Br
0.750000 0.966250 0.037500 Br
0.750000 0.966250 0.462500 Br
0.750000 0.533750 0.962500 Br
0.750000 0.533750 0.537500 Br
