Cs8 Pb8 Br23                            
   1.0000000000000000     
     8.4564889999999995    0.0000000000000000    8.0403009999999995
     0.0000000000000000   11.7298469999999995    0.0000000000000000
    -8.4564889999999995    0.0000000000000000    8.0403009999999995
   Cs   Pb   Br
     8     8    23
Direct
  0.2670990000000018  0.2500000000000000  0.1996940000000009
  0.7711079999999981  0.2500000000000000  0.7150660000000002
  0.7047919999999976  0.7500000000000000  0.2580200000000019
  0.2101970000000009  0.7500000000000000  0.7810980000000001
  0.2956479999999999  0.2500000000000000  0.7363330000000019
  0.7899280000000033  0.2500000000000000  0.2253729999999976
  0.7325299999999970  0.7500000000000000  0.8063190000000020
  0.2280879999999996  0.7500000000000000  0.2784860000000009
  0.9998009999999979  0.0006810000000002  0.9991899999999987
  0.4991979999999998  0.0055850000000035  0.4991520000000023
  0.4999439999999993  0.0004470000000012  0.0002199999999988
  0.0015619999999998  0.0057770000000019  0.5007760000000019
  0.4999439999999993  0.4995529999999988  0.0002210000000034
  0.0015619999999998  0.4942229999999981  0.5007760000000019
  0.9998009999999979  0.4993180000000024  0.9991899999999987
  0.4991979999999998  0.4944149999999965  0.4991520000000023
  0.4717109999999991  0.7500000000000000  0.9699370000000016
  0.9669219999999967  0.2500000000000000  0.9696909999999974
  0.4555709999999991  0.2500000000000000  0.4682719999999989
  0.0259100000000032  0.7500000000000000  0.0307310000000030
  0.5284339999999972  0.2500000000000000  0.0342240000000018
  0.0337239999999994  0.2500000000000000  0.5430849999999978
  0.2475840000000034  0.4685010000000034  0.9497939999999971
  0.7479020000000034  0.4691130000000001  0.4492710000000031
  0.4520330000000001  0.5371060000000014  0.2503940000000000
  0.9510890000000032  0.5374490000000023  0.7452589999999972
  0.5510000000000019  0.0302760000000006  0.7515130000000028
  0.0497050000000030  0.0323110000000000  0.2532119999999978
  0.7523410000000013  0.9706299999999999  0.0500070000000008
  0.2522269999999978  0.9546100000000024  0.5466550000000012
  0.2475840000000034  0.0314979999999991  0.9497939999999971
  0.7479020000000034  0.0308869999999999  0.4492710000000031
  0.4520330000000001  0.9628939999999986  0.2503940000000000
  0.9510890000000032  0.9625509999999977  0.7452589999999972
  0.7523410000000013  0.5293700000000001  0.0500070000000008
  0.2522269999999978  0.5453899999999976  0.5466550000000012
  0.5510000000000019  0.4697239999999994  0.7515130000000028
  0.0497050000000030  0.4676890000000000  0.2532119999999978
  0.7547789999999992  0.7500000000000000  0.4962370000000007

  0.00000000E+00  0.00000000E+00  0.00000000E+00
  0.00000000E+00  0.00000000E+00  0.00000000E+00
  0.00000000E+00  0.00000000E+00  0.00000000E+00
  0.00000000E+00  0.00000000E+00  0.00000000E+00
  0.00000000E+00  0.00000000E+00  0.00000000E+00
  0.00000000E+00  0.00000000E+00  0.00000000E+00
  0.00000000E+00  0.00000000E+00  0.00000000E+00
  0.00000000E+00  0.00000000E+00  0.00000000E+00
  0.00000000E+00  0.00000000E+00  0.00000000E+00
  0.00000000E+00  0.00000000E+00  0.00000000E+00
  0.00000000E+00  0.00000000E+00  0.00000000E+00
  0.00000000E+00  0.00000000E+00  0.00000000E+00
  0.00000000E+00  0.00000000E+00  0.00000000E+00
  0.00000000E+00  0.00000000E+00  0.00000000E+00
  0.00000000E+00  0.00000000E+00  0.00000000E+00
  0.00000000E+00  0.00000000E+00  0.00000000E+00
  0.00000000E+00  0.00000000E+00  0.00000000E+00
  0.00000000E+00  0.00000000E+00  0.00000000E+00
  0.00000000E+00  0.00000000E+00  0.00000000E+00
  0.00000000E+00  0.00000000E+00  0.00000000E+00
  0.00000000E+00  0.00000000E+00  0.00000000E+00
  0.00000000E+00  0.00000000E+00  0.00000000E+00
  0.00000000E+00  0.00000000E+00  0.00000000E+00
  0.00000000E+00  0.00000000E+00  0.00000000E+00
  0.00000000E+00  0.00000000E+00  0.00000000E+00
  0.00000000E+00  0.00000000E+00  0.00000000E+00
  0.00000000E+00  0.00000000E+00  0.00000000E+00
  0.00000000E+00  0.00000000E+00  0.00000000E+00
  0.00000000E+00  0.00000000E+00  0.00000000E+00
  0.00000000E+00  0.00000000E+00  0.00000000E+00
  0.00000000E+00  0.00000000E+00  0.00000000E+00
  0.00000000E+00  0.00000000E+00  0.00000000E+00
  0.00000000E+00  0.00000000E+00  0.00000000E+00
  0.00000000E+00  0.00000000E+00  0.00000000E+00
  0.00000000E+00  0.00000000E+00  0.00000000E+00
  0.00000000E+00  0.00000000E+00  0.00000000E+00
  0.00000000E+00  0.00000000E+00  0.00000000E+00
  0.00000000E+00  0.00000000E+00  0.00000000E+00
  0.00000000E+00  0.00000000E+00  0.00000000E+00
