Cs8 Pb8 Br23
1.0
8.456489 0.000000 8.040301
0.000000 11.729847 0.000000
-8.456489 0.000000 8.040301
Cs Pb Br
8 8 23
direct
0.267099 0.250000 0.199694 Cs
0.771108 0.250000 0.715066 Cs
0.704792 0.750000 0.258020 Cs
0.210197 0.750000 0.781098 Cs
0.295648 0.250000 0.736333 Cs
0.789928 0.250000 0.225373 Cs
0.732530 0.750000 0.806319 Cs
0.228088 0.750000 0.278486 Cs
-0.000199 0.000681 -0.000810 Pb
0.499198 0.005585 0.499152 Pb
0.499944 0.000447 0.000220 Pb
0.001562 0.005777 0.500776 Pb
0.499944 0.499553 0.000221 Pb
0.001562 0.494223 0.500776 Pb
-0.000199 0.499318 -0.000810 Pb
0.499198 0.494415 0.499152 Pb
0.471711 0.750000 0.969937 Br
0.966922 0.250000 0.969691 Br
0.455571 0.250000 0.468272 Br
0.025910 0.750000 0.030731 Br
0.528434 0.250000 0.034224 Br
0.033724 0.250000 0.543085 Br
0.247584 0.468501 0.949794 Br
0.747902 0.469113 0.449271 Br
0.452033 0.537106 0.250394 Br
0.951089 0.537449 0.745259 Br
0.551000 0.030276 0.751513 Br
0.049705 0.032311 0.253212 Br
0.752341 0.970630 0.050007 Br
0.252227 0.954610 0.546655 Br
0.247584 0.031498 0.949794 Br
0.747902 0.030887 0.449271 Br
0.452033 0.962894 0.250394 Br
0.951089 0.962551 0.745259 Br
0.752341 0.529370 0.050007 Br
0.252227 0.545390 0.546655 Br
0.551000 0.469724 0.751513 Br
0.049705 0.467689 0.253212 Br
0.754779 0.750000 0.496237 Br
