Cs4 Pb4 Br12                            
   1.0000000000000000     
     8.0998637446529944    0.0000000000000000    0.0000000000000000
     0.0000000000000000   12.1167220181788018    0.0000000000000000
     0.0000000000000000    0.0000000000000000    8.3203199703215791
   Cs   Pb   Br
     4     4    12
Direct
  0.0347150766311515  0.2500000000000000  0.5015029847955859
  0.4652849233688485  0.7500000000000000  0.0015029847955859
  0.5347150766311515  0.2500000000000000  0.9984970152044141
  0.9652849233688485  0.7500000000000000  0.4984970152044141
  0.0000000000000000  0.0000000000000000  0.0000000000000000
  0.5000000000000000  0.0000000000000000  0.5000000000000000
  0.5000000000000000  0.5000000000000000  0.5000000000000000
  0.0000000000000000  0.5000000000000000  0.0000000000000000
  0.5011388139567146  0.7500000000000000  0.4579898833969551
  0.9988611860432854  0.2500000000000000  0.9579898833969551
  0.0011388139567146  0.7500000000000000  0.0420101166030449
  0.4988611860432854  0.2500000000000000  0.5420101166030449
  0.3100755569404541  0.4787812406351719  0.1928025471650088
  0.1899244430595459  0.5212187593648281  0.6928025471650088
  0.8100755569404541  0.0212187593648281  0.3071974528349912
  0.6899244430595459  0.9787812406351719  0.8071974528349912
  0.3100755569404541  0.0212187593648281  0.1928025471650088
  0.1899244430595459  0.9787812406351719  0.6928025471650088
  0.6899244430595459  0.5212187593648281  0.8071974528349912
  0.8100755569404541  0.4787812406351719  0.3071974528349912

  0.00000000E+00  0.00000000E+00  0.00000000E+00
  0.00000000E+00  0.00000000E+00  0.00000000E+00
  0.00000000E+00  0.00000000E+00  0.00000000E+00
  0.00000000E+00  0.00000000E+00  0.00000000E+00
  0.00000000E+00  0.00000000E+00  0.00000000E+00
  0.00000000E+00  0.00000000E+00  0.00000000E+00
  0.00000000E+00  0.00000000E+00  0.00000000E+00
  0.00000000E+00  0.00000000E+00  0.00000000E+00
  0.00000000E+00  0.00000000E+00  0.00000000E+00
  0.00000000E+00  0.00000000E+00  0.00000000E+00
  0.00000000E+00  0.00000000E+00  0.00000000E+00
  0.00000000E+00  0.00000000E+00  0.00000000E+00
  0.00000000E+00  0.00000000E+00  0.00000000E+00
  0.00000000E+00  0.00000000E+00  0.00000000E+00
  0.00000000E+00  0.00000000E+00  0.00000000E+00
  0.00000000E+00  0.00000000E+00  0.00000000E+00
  0.00000000E+00  0.00000000E+00  0.00000000E+00
  0.00000000E+00  0.00000000E+00  0.00000000E+00
  0.00000000E+00  0.00000000E+00  0.00000000E+00
  0.00000000E+00  0.00000000E+00  0.00000000E+00
