Cs64 Pb64 Br191
1.0
16.840035 0.000000 16.155961
0.000000 23.527616 0.000000
-16.840035 0.000000 16.155961
Cs Pb Br Cs Pb Br
56 56 168 8 8 23
direct
0.885881 0.875117 0.353609 Cs
0.135315 0.875334 0.604038 Cs
0.886356 0.374595 0.353398 Cs
0.136834 0.374182 0.605800 Cs
0.886169 0.875112 0.853951 Cs
0.135698 0.875143 0.103139 Cs
0.386277 0.875025 0.354729 Cs
0.635055 0.873775 0.603413 Cs
0.886022 0.374850 0.853707 Cs
0.135927 0.374752 0.103376 Cs
0.386175 0.875118 0.853626 Cs
0.636113 0.875076 0.103500 Cs
0.385775 0.374681 0.854053 Cs
0.636122 0.374812 0.103395 Cs
0.103353 0.125016 0.385980 Cs
0.352893 0.123385 0.636932 Cs
0.103950 0.626109 0.385433 Cs
0.103438 0.124845 0.886163 Cs
0.353784 0.124816 0.135879 Cs
0.603578 0.124903 0.385457 Cs
0.853582 0.124894 0.636141 Cs
0.103719 0.625024 0.886261 Cs
0.353691 0.625129 0.135347 Cs
0.853594 0.625647 0.637216 Cs
0.603854 0.124736 0.886467 Cs
0.853468 0.124847 0.135935 Cs
0.603797 0.624902 0.886603 Cs
0.853645 0.625152 0.136246 Cs
0.896468 0.875071 0.113884 Cs
0.146215 0.875767 0.363635 Cs
0.896277 0.374895 0.113961 Cs
0.146095 0.373324 0.361695 Cs
0.895969 0.875123 0.613918 Cs
0.146190 0.875140 0.864160 Cs
0.396018 0.875002 0.113921 Cs
0.646382 0.873469 0.365488 Cs
0.897488 0.374346 0.614401 Cs
0.146355 0.374862 0.863840 Cs
0.396146 0.374875 0.113391 Cs
0.396107 0.876589 0.614305 Cs
0.646232 0.875071 0.864082 Cs
0.645887 0.374837 0.864194 Cs
0.113599 0.124813 0.146126 Cs
0.363940 0.124690 0.396614 Cs
0.114288 0.625127 0.146735 Cs
0.113937 0.124921 0.646519 Cs
0.363883 0.124982 0.896376 Cs
0.613978 0.124809 0.146436 Cs
0.863882 0.124948 0.396426 Cs
0.113539 0.625432 0.647968 Cs
0.363988 0.625044 0.896980 Cs
0.613762 0.625085 0.146031 Cs
0.864168 0.625576 0.394644 Cs
0.614194 0.124637 0.646207 Cs
0.864041 0.124889 0.896736 Cs
0.863795 0.625119 0.896407 Cs
0.750119 0.750421 0.249751 Pb
0.999635 0.750336 0.500031 Pb
0.750096 0.249567 0.249791 Pb
0.000072 0.250052 0.500007 Pb
0.750100 0.750554 0.750174 Pb
0.999971 0.749882 0.000021 Pb
0.249300 0.751329 0.249301 Pb
0.495819 0.745751 0.500717 Pb
0.750405 0.249358 0.750390 Pb
0.999951 0.249976 0.000021 Pb
0.249713 0.750444 0.750314 Pb
0.499943 0.750078 0.999919 Pb
0.249332 0.249199 0.750556 Pb
0.500085 0.249682 0.000159 Pb
0.999961 0.750365 0.249878 Pb
0.248124 0.751336 0.499838 Pb
0.999788 0.249601 0.249774 Pb
0.999976 0.750285 0.750182 Pb
0.249846 0.750264 0.999927 Pb
0.500068 0.750403 0.249521 Pb
0.749867 0.749621 0.500011 Pb
0.999804 0.249675 0.750146 Pb
0.249873 0.249704 0.999978 Pb
0.749926 0.249992 0.499955 Pb
0.499894 0.749585 0.750255 Pb
0.750052 0.750060 0.000070 Pb
0.500697 0.248687 0.750640 Pb
0.750071 0.249807 0.000046 Pb
0.999900 0.999968 0.249918 Pb
0.249553 0.000492 0.499880 Pb
0.000044 0.499874 0.249777 Pb
0.999926 0.000010 0.750078 Pb
0.249932 0.000040 1.000001 Pb
0.500065 -0.000367 0.249931 Pb
0.750011 0.000146 0.500052 Pb
0.999918 0.500034 0.750326 Pb
0.249857 0.499807 -0.000049 Pb
0.753362 0.500170 0.500175 Pb
0.500186 0.999767 0.750263 Pb
0.750034 0.999877 0.000058 Pb
0.499651 0.499734 0.749927 Pb
0.750132 0.499925 0.000034 Pb
0.749937 -0.000127 0.250009 Pb
0.999888 0.000245 0.499976 Pb
0.750177 0.499967 0.249423 Pb
0.999772 0.500712 0.500496 Pb
0.750047 0.999729 0.750057 Pb
0.999943 -0.000050 0.000002 Pb
0.249940 0.000302 0.249899 Pb
0.500226 -0.000197 0.500133 Pb
0.750360 0.499984 0.750426 Pb
0.999965 0.500058 0.000043 Pb
0.249764 0.999700 0.750208 Pb
0.499967 0.999890 0.000038 Pb
0.250164 0.500429 0.750448 Pb
0.500010 0.499699 0.999999 Pb
0.984041 0.124929 0.230491 Br
0.233981 0.126544 0.480772 Br
0.984647 0.624886 0.231278 Br
0.238543 0.624874 0.478695 Br
0.984198 0.124974 0.730379 Br
0.234175 0.124982 0.980375 Br
0.484434 0.124753 0.231188 Br
0.733462 0.125700 0.480493 Br
0.984005 0.624953 0.731099 Br
0.234365 0.624880 0.981278 Br
0.483989 0.624777 0.231668 Br
0.484662 0.124276 0.729822 Br
0.734359 0.124923 0.980858 Br
0.734303 0.624887 0.980941 Br
0.229904 0.875494 0.233685 Br
0.485699 0.866651 0.486297 Br
0.231893 0.374554 0.233922 Br
0.230164 0.874757 0.734152 Br
0.480408 0.874873 0.984368 Br
0.729794 0.874944 0.234885 Br
0.980390 0.875118 0.484535 Br
0.232989 0.375052 0.734481 Br
0.480573 0.374845 0.984135 Br
0.731670 0.374966 0.233389 Br
0.981725 0.376074 0.484063 Br
0.729620 0.874871 0.733779 Br
0.980801 0.874862 0.984464 Br
0.980545 0.375094 0.984481 Br
0.769406 0.124959 0.265937 Br
0.019294 0.125583 0.515767 Br
0.768100 0.624908 0.265874 Br
0.021243 0.624918 0.515896 Br
0.769663 0.124682 0.765944 Br
0.019050 0.125009 0.015604 Br
0.270205 0.124947 0.266106 Br
0.518293 0.122610 0.514618 Br
0.768081 0.625017 0.765732 Br
0.019750 0.624882 0.015951 Br
0.268157 0.124594 0.766387 Br
0.519396 0.124862 0.015932 Br
0.268885 0.625070 0.766731 Br
0.518761 0.624822 0.015620 Br
0.015457 0.875021 0.269630 Br
0.263902 0.876036 0.519295 Br
0.015294 0.374867 0.269001 Br
0.015629 0.874971 0.769436 Br
0.265574 0.875022 0.019371 Br
0.515763 0.874637 0.270913 Br
0.764282 0.874888 0.519058 Br
0.015607 0.375024 0.768861 Br
0.265586 0.374944 0.019027 Br
0.766121 0.375726 0.520017 Br
0.515867 0.874219 0.768095 Br
0.765726 0.874876 0.019558 Br
0.514396 0.374363 0.768316 Br
0.765659 0.374984 0.019267 Br
0.873834 0.981931 0.224606 Br
0.123850 0.982435 0.474469 Br
0.873944 0.482231 0.224689 Br
0.131049 0.482086 0.474710 Br
0.873773 0.981918 0.724528 Br
0.123891 0.982121 0.974580 Br
0.373908 0.981770 0.224766 Br
0.623587 0.982231 0.474556 Br
0.873884 0.482237 0.724180 Br
0.123919 0.481951 0.974461 Br
0.373814 0.482634 0.224148 Br
0.373847 0.982290 0.724960 Br
0.623817 0.981998 0.974598 Br
0.623837 0.482076 0.974596 Br
0.974472 0.018017 0.374003 Br
0.224483 0.017939 0.623818 Br
0.975436 0.518064 0.374760 Br
0.225831 0.520342 0.623050 Br
0.974471 0.017919 0.873888 Br
0.224553 0.018123 0.123963 Br
0.474276 0.017148 0.374403 Br
0.724472 0.017855 0.623839 Br
0.974470 0.517930 0.873830 Br
0.224219 0.517041 0.124169 Br
0.474586 0.017902 0.873834 Br
0.724469 0.017874 0.123977 Br
0.474604 0.517632 0.872866 Br
0.724498 0.518024 0.124193 Br
0.025462 0.767915 0.126194 Br
0.275386 0.768115 0.376005 Br
0.025427 0.267900 0.126162 Br
0.025322 0.767882 0.626066 Br
0.275494 0.768103 0.875856 Br
0.525311 0.768010 0.126334 Br
0.775230 0.767818 0.376243 Br
0.025483 0.267999 0.626008 Br
0.275189 0.267908 0.876218 Br
0.525442 0.267971 0.126283 Br
0.775340 0.268191 0.376251 Br
0.526417 0.763197 0.625407 Br
0.775445 0.768054 0.876024 Br
0.775461 0.267806 0.876123 Br
0.126178 0.231979 0.275456 Br
0.376187 0.229294 0.526501 Br
0.125975 0.732768 0.275602 Br
0.125720 0.232079 0.775666 Br
0.376090 0.232025 0.025405 Br
0.626086 0.232212 0.275633 Br
0.875745 0.232305 0.525377 Br
0.126070 0.732118 0.775657 Br
0.376086 0.732209 0.025417 Br
0.875907 0.731603 0.525497 Br
0.626205 0.231872 0.775689 Br
0.876052 0.232068 0.025569 Br
0.625921 0.731758 0.775628 Br
0.876054 0.731947 0.025503 Br
0.873775 0.767949 0.224526 Br
0.123095 0.768450 0.473403 Br
0.873893 0.267838 0.224584 Br
0.124193 0.268968 0.475062 Br
0.873754 0.767969 0.724480 Br
0.123887 0.767917 0.974436 Br
0.373800 0.767628 0.225239 Br
0.622521 0.761043 0.475517 Br
0.873776 0.267823 0.724423 Br
0.123894 0.267982 0.974534 Br
0.373943 0.267404 0.223721 Br
0.373865 0.768298 0.724425 Br
0.623818 0.767902 0.974582 Br
0.623853 0.267902 0.974643 Br
0.974579 0.232107 0.374034 Br
0.224791 0.232137 0.623967 Br
0.974565 0.732100 0.374014 Br
0.223414 0.732261 0.623586 Br
0.974405 0.232088 0.873824 Br
0.224350 0.231829 0.124106 Br
0.474338 0.231962 0.374096 Br
0.724467 0.232064 0.623881 Br
0.974458 0.732008 0.873893 Br
0.224285 0.732764 0.123733 Br
0.474947 0.231777 0.873940 Br
0.724432 0.231943 0.124045 Br
0.474495 0.731924 0.873788 Br
0.724452 0.732039 0.123967 Br
0.126114 0.018119 0.275523 Br
0.376296 0.017137 0.525357 Br
0.126274 0.516376 0.276942 Br
0.125984 0.017860 0.775478 Br
0.376093 0.017921 0.025409 Br
0.625992 0.017781 0.275609 Br
0.875890 0.017985 0.525456 Br
0.126300 0.517735 0.775305 Br
0.376047 0.517759 0.025351 Br
0.879111 0.518342 0.525430 Br
0.625996 0.018032 0.775493 Br
0.876036 0.017863 0.025487 Br
0.625812 0.517766 0.775174 Br
0.876065 0.518055 0.025557 Br
0.025393 0.982075 0.126178 Br
0.275505 0.982035 0.376180 Br
0.025585 0.482125 0.126397 Br
0.025221 0.982230 0.626034 Br
0.275443 0.981916 0.876049 Br
0.525322 0.981848 0.126311 Br
0.775264 0.982010 0.376252 Br
0.025893 0.481988 0.625868 Br
0.275596 0.482142 0.875692 Br
0.525419 0.481965 0.125694 Br
0.775910 0.481885 0.376501 Br
0.525564 0.982084 0.625858 Br
0.775358 0.981903 0.876046 Br
0.775465 0.482177 0.876068 Br
0.383731 0.373260 0.346924 Cs
0.638881 0.373579 0.607439 Cs
0.604562 0.625746 0.382804 Cs
0.352657 0.630383 0.636677 Cs
0.396851 0.366991 0.621624 Cs
0.648903 0.375156 0.362577 Cs
0.615036 0.624654 0.650556 Cs
0.361447 0.628120 0.384434 Cs
0.249886 0.249069 0.249728 Pb
0.499268 0.249774 0.499686 Pb
0.500158 0.249618 0.249800 Pb
0.250253 0.250259 0.500175 Pb
0.500144 0.499447 0.249605 Pb
0.248029 0.499854 0.499621 Pb
0.249504 0.499362 0.249301 Pb
0.504269 0.493181 0.497087 Pb
0.483569 0.624243 0.729866 Br
0.734966 0.624330 0.479653 Br
0.732105 0.374847 0.736117 Br
0.465869 0.372592 0.484751 Br
0.263614 0.625008 0.260462 Br
0.516829 0.374846 0.269997 Br
0.269226 0.377029 0.523158 Br
0.373833 0.483056 0.721567 Br
0.624856 0.487370 0.473439 Br
0.474647 0.517984 0.373518 Br
0.724719 0.517982 0.623513 Br
0.525619 0.267692 0.625807 Br
0.275149 0.268020 0.376356 Br
0.625933 0.732344 0.274869 Br
0.373692 0.742774 0.528898 Br
0.373851 0.263423 0.728469 Br
0.623016 0.271775 0.475481 Br
0.475827 0.730223 0.374314 Br
0.724346 0.731486 0.623936 Br
0.626040 0.517627 0.275365 Br
0.524730 0.479190 0.623700 Br
0.278057 0.482751 0.377283 Br
0.452695 0.603283 0.518324 Br
