Cs8 Pb8 Br24                            
   1.0000000000000000     
    11.7353520000000007    0.0000000000000000    0.0000000000000000
     0.0000000000000000   11.7353520000000007    0.0000000000000000
     0.0000000000000000    0.0000000000000000   11.7353520000000007
   Cs   Pb   Br
     8     8    24
Direct
  0.2500000000000000  0.2500000000000000  0.2500000000000000
  0.2500000000000000  0.2500000000000000  0.7500000000000000
  0.2500000000000000  0.7500000000000000  0.2500000000000000
  0.2500000000000000  0.7500000000000000  0.7500000000000000
  0.7500000000000000  0.2500000000000000  0.2500000000000000
  0.7500000000000000  0.2500000000000000  0.7500000000000000
  0.7500000000000000  0.7500000000000000  0.2500000000000000
  0.7500000000000000  0.7500000000000000  0.7500000000000000
  0.0000000000000000  0.0000000000000000  0.0000000000000000
  0.0000000000000000  0.0000000000000000  0.5000000000000000
  0.0000000000000000  0.5000000000000000  0.0000000000000000
  0.0000000000000000  0.5000000000000000  0.5000000000000000
  0.5000000000000000  0.0000000000000000  0.0000000000000000
  0.5000000000000000  0.0000000000000000  0.5000000000000000
  0.5000000000000000  0.5000000000000000  0.0000000000000000
  0.5000000000000000  0.5000000000000000  0.5000000000000000
  0.9887500000000031  0.2500000000000000  0.0125000000000028
  0.9887500000000031  0.2500000000000000  0.4874999999999972
  0.0112499999999969  0.7500000000000000  0.9874999999999972
  0.0112499999999969  0.7500000000000000  0.5125000000000028
  0.5112499999999969  0.2500000000000000  0.9874999999999972
  0.5112499999999969  0.2500000000000000  0.5125000000000028
  0.4887500000000031  0.7500000000000000  0.0125000000000028
  0.4887500000000031  0.7500000000000000  0.4874999999999972
  0.0125000000000028  0.9874999999999972  0.2500000000000000
  0.9874999999999972  0.0125000000000028  0.7500000000000000
  0.9874999999999972  0.5125000000000028  0.2500000000000000
  0.0125000000000028  0.4874999999999972  0.7500000000000000
  0.4874999999999972  0.0125000000000028  0.2500000000000000
  0.5125000000000028  0.9874999999999972  0.7500000000000000
  0.5125000000000028  0.4874999999999972  0.2500000000000000
  0.4874999999999972  0.5125000000000028  0.7500000000000000
  0.2500000000000000  0.0112499999999969  0.9874999999999972
  0.2500000000000000  0.0112499999999969  0.5125000000000028
  0.2500000000000000  0.4887500000000031  0.0125000000000028
  0.2500000000000000  0.4887500000000031  0.4874999999999972
  0.7500000000000000  0.9887500000000031  0.0125000000000028
  0.7500000000000000  0.9887500000000031  0.4874999999999972
  0.7500000000000000  0.5112499999999969  0.9874999999999972
  0.7500000000000000  0.5112499999999969  0.5125000000000028

  0.00000000E+00  0.00000000E+00  0.00000000E+00
  0.00000000E+00  0.00000000E+00  0.00000000E+00
  0.00000000E+00  0.00000000E+00  0.00000000E+00
  0.00000000E+00  0.00000000E+00  0.00000000E+00
  0.00000000E+00  0.00000000E+00  0.00000000E+00
  0.00000000E+00  0.00000000E+00  0.00000000E+00
  0.00000000E+00  0.00000000E+00  0.00000000E+00
  0.00000000E+00  0.00000000E+00  0.00000000E+00
  0.00000000E+00  0.00000000E+00  0.00000000E+00
  0.00000000E+00  0.00000000E+00  0.00000000E+00
  0.00000000E+00  0.00000000E+00  0.00000000E+00
  0.00000000E+00  0.00000000E+00  0.00000000E+00
  0.00000000E+00  0.00000000E+00  0.00000000E+00
  0.00000000E+00  0.00000000E+00  0.00000000E+00
  0.00000000E+00  0.00000000E+00  0.00000000E+00
  0.00000000E+00  0.00000000E+00  0.00000000E+00
  0.00000000E+00  0.00000000E+00  0.00000000E+00
  0.00000000E+00  0.00000000E+00  0.00000000E+00
  0.00000000E+00  0.00000000E+00  0.00000000E+00
  0.00000000E+00  0.00000000E+00  0.00000000E+00
  0.00000000E+00  0.00000000E+00  0.00000000E+00
  0.00000000E+00  0.00000000E+00  0.00000000E+00
  0.00000000E+00  0.00000000E+00  0.00000000E+00
  0.00000000E+00  0.00000000E+00  0.00000000E+00
  0.00000000E+00  0.00000000E+00  0.00000000E+00
  0.00000000E+00  0.00000000E+00  0.00000000E+00
  0.00000000E+00  0.00000000E+00  0.00000000E+00
  0.00000000E+00  0.00000000E+00  0.00000000E+00
  0.00000000E+00  0.00000000E+00  0.00000000E+00
  0.00000000E+00  0.00000000E+00  0.00000000E+00
  0.00000000E+00  0.00000000E+00  0.00000000E+00
  0.00000000E+00  0.00000000E+00  0.00000000E+00
  0.00000000E+00  0.00000000E+00  0.00000000E+00
  0.00000000E+00  0.00000000E+00  0.00000000E+00
  0.00000000E+00  0.00000000E+00  0.00000000E+00
  0.00000000E+00  0.00000000E+00  0.00000000E+00
  0.00000000E+00  0.00000000E+00  0.00000000E+00
  0.00000000E+00  0.00000000E+00  0.00000000E+00
  0.00000000E+00  0.00000000E+00  0.00000000E+00
  0.00000000E+00  0.00000000E+00  0.00000000E+00
