Cs8 Pb8 Br24
1.0
11.735352 0.000000 0.000000
0.000000 11.735352 0.000000
0.000000 0.000000 11.735352
Cs Pb Br
8 8 24
direct
0.250000 0.250000 0.250000 Cs
0.250000 0.250000 0.750000 Cs
0.250000 0.750000 0.250000 Cs
0.250000 0.750000 0.750000 Cs
0.750000 0.250000 0.250000 Cs
0.750000 0.250000 0.750000 Cs
0.750000 0.750000 0.250000 Cs
0.750000 0.750000 0.750000 Cs
0.000000 0.000000 0.000000 Pb
0.000000 0.000000 0.500000 Pb
0.000000 0.500000 0.000000 Pb
0.000000 0.500000 0.500000 Pb
0.500000 0.000000 0.000000 Pb
0.500000 0.000000 0.500000 Pb
0.500000 0.500000 0.000000 Pb
0.500000 0.500000 0.500000 Pb
0.988750 0.250000 0.012500 Br
0.988750 0.250000 0.487500 Br
0.011250 0.750000 0.987500 Br
0.011250 0.750000 0.512500 Br
0.511250 0.250000 0.987500 Br
0.511250 0.250000 0.512500 Br
0.488750 0.750000 0.012500 Br
0.488750 0.750000 0.487500 Br
0.012500 0.987500 0.250000 Br
0.987500 0.012500 0.750000 Br
0.987500 0.512500 0.250000 Br
0.012500 0.487500 0.750000 Br
0.487500 0.012500 0.250000 Br
0.512500 0.987500 0.750000 Br
0.512500 0.487500 0.250000 Br
0.487500 0.512500 0.750000 Br
0.250000 0.011250 0.987500 Br
0.250000 0.011250 0.512500 Br
0.250000 0.488750 0.012500 Br
0.250000 0.488750 0.487500 Br
0.750000 0.988750 0.012500 Br
0.750000 0.988750 0.487500 Br
0.750000 0.511250 0.987500 Br
0.750000 0.511250 0.512500 Br
