Cs4 Pb4 Br12                            
   1.0000000000000000     
     8.8410184777726180    0.0000000000000000    0.0000000000000000
     0.0000000000000000   11.4186944061761881    0.0000000000000000
     0.0000000000000000    0.0000000000000000    8.4818795813957841
   Cs   Pb   Br
     4     4    12
Direct
  0.0542234532142061  0.2500000000000000  0.4832387501092157
  0.4457765467857939  0.7500000000000000  0.9832387501092157
  0.5542234532142061  0.2500000000000000  0.0167612498907843
  0.9457765467857939  0.7500000000000000  0.5167612498907843
  0.0000000000000000  0.0000000000000000  0.0000000000000000
  0.5000000000000000  0.0000000000000000  0.5000000000000000
  0.5000000000000000  0.5000000000000000  0.5000000000000000
  0.0000000000000000  0.5000000000000000  0.0000000000000000
  0.5267060696530450  0.7500000000000000  0.4136571698375278
  0.9732939303469550  0.2500000000000000  0.9136571698375278
  0.0267060696530450  0.7500000000000000  0.0863428301624722
  0.4732939303469550  0.2500000000000000  0.5863428301624722
  0.2790160872499499  0.4620642184473951  0.2195624795101949
  0.2209839127500501  0.5379357815526049  0.7195624795101949
  0.7790160872499499  0.0379357815526049  0.2804375204898051
  0.7209839127500501  0.9620642184473951  0.7804375204898051
  0.2790160872499499  0.0379357815526049  0.2195624795101949
  0.2209839127500501  0.9620642184473951  0.7195624795101949
  0.7209839127500501  0.5379357815526049  0.7804375204898051
  0.7790160872499499  0.4620642184473951  0.2804375204898051

  0.00000000E+00  0.00000000E+00  0.00000000E+00
  0.00000000E+00  0.00000000E+00  0.00000000E+00
  0.00000000E+00  0.00000000E+00  0.00000000E+00
  0.00000000E+00  0.00000000E+00  0.00000000E+00
  0.00000000E+00  0.00000000E+00  0.00000000E+00
  0.00000000E+00  0.00000000E+00  0.00000000E+00
  0.00000000E+00  0.00000000E+00  0.00000000E+00
  0.00000000E+00  0.00000000E+00  0.00000000E+00
  0.00000000E+00  0.00000000E+00  0.00000000E+00
  0.00000000E+00  0.00000000E+00  0.00000000E+00
  0.00000000E+00  0.00000000E+00  0.00000000E+00
  0.00000000E+00  0.00000000E+00  0.00000000E+00
  0.00000000E+00  0.00000000E+00  0.00000000E+00
  0.00000000E+00  0.00000000E+00  0.00000000E+00
  0.00000000E+00  0.00000000E+00  0.00000000E+00
  0.00000000E+00  0.00000000E+00  0.00000000E+00
  0.00000000E+00  0.00000000E+00  0.00000000E+00
  0.00000000E+00  0.00000000E+00  0.00000000E+00
  0.00000000E+00  0.00000000E+00  0.00000000E+00
  0.00000000E+00  0.00000000E+00  0.00000000E+00
