Cs64 Pb64 Br191
1.0
16.840035 0.000000 16.155961
0.000000 23.527616 0.000000
-16.840035 0.000000 16.155961
Cs Pb Br Cs Pb Br
56 56 168 8 8 23
direct
0.885865 0.875109 0.353619 Cs
0.135299 0.875328 0.604028 Cs
0.886254 0.374590 0.353331 Cs
0.136701 0.373982 0.606237 Cs
0.886123 0.875077 0.853939 Cs
0.135702 0.875128 0.103148 Cs
0.386346 0.875262 0.354603 Cs
0.635013 0.873875 0.603451 Cs
0.885968 0.374881 0.853672 Cs
0.135943 0.374761 0.103367 Cs
0.386166 0.875093 0.853653 Cs
0.636109 0.875085 0.103498 Cs
0.385734 0.374650 0.854062 Cs
0.636116 0.374800 0.103396 Cs
0.103301 0.124999 0.385956 Cs
0.352977 0.123250 0.637014 Cs
0.104209 0.626312 0.385547 Cs
0.103436 0.124838 0.886154 Cs
0.353763 0.124805 0.135868 Cs
0.603606 0.124909 0.385506 Cs
0.853541 0.124873 0.636113 Cs
0.103597 0.625023 0.886308 Cs
0.353681 0.625136 0.135425 Cs
0.853526 0.625760 0.637770 Cs
0.603843 0.124698 0.886472 Cs
0.853436 0.124838 0.135926 Cs
0.603851 0.624858 0.886362 Cs
0.853738 0.625163 0.136100 Cs
0.896445 0.875062 0.113880 Cs
0.146225 0.875727 0.363692 Cs
0.896245 0.374902 0.113981 Cs
0.146041 0.372801 0.361434 Cs
0.895889 0.875123 0.613896 Cs
0.146201 0.875122 0.864159 Cs
0.396069 0.875004 0.113936 Cs
0.646296 0.873385 0.365538 Cs
0.897313 0.374255 0.614467 Cs
0.146391 0.374879 0.863843 Cs
0.396127 0.374825 0.113402 Cs
0.396092 0.876632 0.614235 Cs
0.646294 0.875038 0.864051 Cs
0.645926 0.374844 0.864160 Cs
0.113593 0.124794 0.146122 Cs
0.363953 0.124718 0.396634 Cs
0.114208 0.625114 0.146701 Cs
0.113927 0.124900 0.646527 Cs
0.363889 0.124971 0.896363 Cs
0.613997 0.124794 0.146416 Cs
0.863855 0.124942 0.396429 Cs
0.113553 0.625563 0.648354 Cs
0.363962 0.625086 0.896905 Cs
0.613672 0.625126 0.146274 Cs
0.863961 0.625644 0.394190 Cs
0.614229 0.124618 0.646202 Cs
0.864008 0.124884 0.896710 Cs
0.863900 0.625130 0.896610 Cs
0.750004 0.750362 0.249790 Pb
0.999613 0.750276 0.500049 Pb
0.750082 0.249569 0.249797 Pb
0.000013 0.250053 0.500010 Pb
0.749941 0.750352 0.750083 Pb
0.999966 0.749912 0.000021 Pb
0.249386 0.751229 0.249337 Pb
0.496293 0.746870 0.500622 Pb
0.750403 0.249377 0.750386 Pb
0.999947 0.249953 0.000027 Pb
0.249786 0.750433 0.750266 Pb
0.499942 0.750052 0.999878 Pb
0.249335 0.249157 0.750597 Pb
0.500094 0.249671 0.000159 Pb
0.999941 0.750366 0.249864 Pb
0.248415 0.751379 0.499822 Pb
0.999742 0.249582 0.249750 Pb
0.999934 0.750334 0.750193 Pb
0.249866 0.750251 0.999945 Pb
0.500123 0.750533 0.249508 Pb
0.749898 0.749457 0.500023 Pb
0.999779 0.249661 0.750159 Pb
0.249879 0.249700 0.999983 Pb
0.749902 0.249992 0.499947 Pb
0.499956 0.749573 0.750284 Pb
0.750021 0.750042 0.000037 Pb
0.500739 0.248592 0.750687 Pb
0.750055 0.249802 0.000039 Pb
0.999888 0.999947 0.249914 Pb
0.249599 0.000469 0.499882 Pb
0.000035 0.499887 0.249793 Pb
0.999912 0.000004 0.750084 Pb
0.249932 0.000020 0.999991 Pb
0.500080 -0.000329 0.249941 Pb
0.749964 0.000059 0.500039 Pb
0.999881 0.500026 0.750347 Pb
0.249875 0.499862 -0.000015 Pb
0.753478 0.500298 0.500249 Pb
0.500223 0.999667 0.750252 Pb
0.750031 0.999861 0.000053 Pb
0.499615 0.499739 0.750051 Pb
0.750106 0.499933 0.000010 Pb
0.749904 -0.000164 0.250020 Pb
0.999872 0.000228 0.499976 Pb
0.750055 0.500054 0.249440 Pb
0.999470 0.500728 0.500493 Pb
0.750013 0.999669 0.750028 Pb
0.999939 -0.000061 -0.000002 Pb
0.249933 0.000254 0.249893 Pb
0.500186 -0.000107 0.500087 Pb
0.750247 0.500246 0.750332 Pb
0.999959 0.500023 0.000047 Pb
0.249756 0.999652 0.750209 Pb
0.499966 0.999859 0.000028 Pb
0.250228 0.500490 0.750423 Pb
0.500008 0.499727 1.000009 Pb
0.984020 0.124898 0.230473 Br
0.233891 0.126495 0.480737 Br
0.984616 0.624858 0.231303 Br
0.240040 0.624537 0.478924 Br
0.984183 0.124968 0.730369 Br
0.234168 0.124957 0.980370 Br
0.484421 0.124789 0.231077 Br
0.733523 0.125589 0.480594 Br
0.984028 0.624945 0.731261 Br
0.234325 0.624870 0.981178 Br
0.483662 0.624710 0.232254 Br
0.484723 0.124204 0.729910 Br
0.734355 0.124906 0.980884 Br
0.734255 0.624865 0.980909 Br
0.229890 0.875417 0.233716 Br
0.485050 0.869204 0.486054 Br
0.231953 0.374561 0.233817 Br
0.230149 0.874724 0.734102 Br
0.480382 0.874848 0.984379 Br
0.729642 0.874916 0.234970 Br
0.980428 0.875042 0.484581 Br
0.233266 0.375085 0.734591 Br
0.480559 0.374889 0.984186 Br
0.731585 0.374993 0.233450 Br
0.981437 0.376116 0.484100 Br
0.729639 0.874802 0.733698 Br
0.980769 0.874864 0.984455 Br
0.980519 0.375092 0.984484 Br
0.769392 0.124946 0.265915 Br
0.019297 0.125575 0.515745 Br
0.768446 0.624897 0.265402 Br
0.021472 0.624746 0.515964 Br
0.769617 0.124660 0.765904 Br
0.019050 0.124995 0.015605 Br
0.270191 0.124921 0.266125 Br
0.518749 0.123434 0.514887 Br
0.768560 0.625015 0.766344 Br
0.019661 0.624852 0.015962 Br
0.268074 0.124564 0.766410 Br
0.519370 0.124854 0.015933 Br
0.269876 0.625083 0.765958 Br
0.518908 0.624759 0.015562 Br
0.015472 0.874995 0.269657 Br
0.264026 0.875928 0.519319 Br
0.015225 0.374860 0.268952 Br
0.015656 0.874974 0.769464 Br
0.265589 0.874993 0.019407 Br
0.515837 0.874737 0.270621 Br
0.764248 0.874680 0.519030 Br
0.015662 0.375044 0.768809 Br
0.265580 0.374977 0.018964 Br
0.766070 0.375715 0.520061 Br
0.515853 0.874151 0.768298 Br
0.765719 0.874864 0.019537 Br
0.514366 0.374302 0.768380 Br
0.765648 0.374996 0.019242 Br
0.873836 0.981908 0.224613 Br
0.123835 0.982437 0.474465 Br
0.873919 0.482244 0.224754 Br
0.129649 0.481828 0.474297 Br
0.873784 0.981907 0.724531 Br
0.123885 0.982109 0.974583 Br
0.373889 0.981788 0.224745 Br
0.623659 0.982293 0.474523 Br
0.873920 0.482272 0.724160 Br
0.123927 0.481961 0.974492 Br
0.373829 0.482499 0.224138 Br
0.373831 0.982272 0.724962 Br
0.623815 0.981990 0.974582 Br
0.623790 0.482066 0.974570 Br
0.974461 0.018017 0.374003 Br
0.224472 0.017926 0.623814 Br
0.975351 0.518125 0.374812 Br
0.225768 0.520618 0.622995 Br
0.974466 0.017922 0.873891 Br
0.224546 0.018113 0.123962 Br
0.474326 0.017374 0.374306 Br
0.724481 0.017813 0.623843 Br
0.974496 0.517896 0.873838 Br
0.224371 0.517237 0.124272 Br
0.474565 0.017897 0.873852 Br
0.724474 0.017851 0.123971 Br
0.474434 0.517536 0.872965 Br
0.724423 0.518014 0.124198 Br
0.025452 0.767912 0.126207 Br
0.275501 0.768126 0.376013 Br
0.025435 0.267904 0.126156 Br
0.025333 0.767866 0.626075 Br
0.275504 0.768043 0.875895 Br
0.525397 0.767971 0.126252 Br
0.775285 0.767810 0.376256 Br
0.025412 0.267954 0.626008 Br
0.275172 0.267889 0.876212 Br
0.525451 0.267953 0.126289 Br
0.775293 0.268205 0.376257 Br
0.525926 0.763667 0.625570 Br
0.775381 0.768056 0.875989 Br
0.775469 0.267791 0.876122 Br
0.126179 0.231957 0.275431 Br
0.376204 0.229376 0.526525 Br
0.125972 0.732676 0.275535 Br
0.125708 0.232109 0.775654 Br
0.376082 0.232023 0.025406 Br
0.626078 0.232229 0.275653 Br
0.875756 0.232298 0.525384 Br
0.126095 0.732018 0.775657 Br
0.376086 0.732168 0.025439 Br
0.875901 0.731329 0.525560 Br
0.626208 0.231876 0.775732 Br
0.876059 0.232071 0.025575 Br
0.625892 0.731674 0.775448 Br
0.876053 0.731989 0.025473 Br
0.873736 0.767966 0.224567 Br
0.123091 0.768201 0.473473 Br
0.873888 0.267833 0.224589 Br
0.124202 0.269232 0.475344 Br
0.873779 0.767989 0.724473 Br
0.123897 0.767914 0.974458 Br
0.373784 0.767660 0.225165 Br
0.622653 0.761400 0.475867 Br
0.873776 0.267796 0.724448 Br
0.123888 0.267987 0.974533 Br
0.373935 0.267379 0.223738 Br
0.373846 0.768320 0.724309 Br
0.623812 0.767905 0.974549 Br
0.623854 0.267912 0.974632 Br
0.974598 0.232114 0.374038 Br
0.224799 0.232110 0.623988 Br
0.974611 0.732063 0.374021 Br
0.223665 0.732144 0.623614 Br
0.974394 0.232087 0.873833 Br
0.224347 0.231831 0.124129 Br
0.474349 0.231945 0.374089 Br
0.724460 0.232107 0.623870 Br
0.974473 0.732026 0.873895 Br
0.224353 0.732571 0.123788 Br
0.474942 0.231773 0.873947 Br
0.724426 0.231961 0.124054 Br
0.474456 0.731896 0.873826 Br
0.724410 0.732065 0.123968 Br
0.126099 0.018111 0.275516 Br
0.376233 0.017289 0.525379 Br
0.126302 0.516447 0.277032 Br
0.125978 0.017841 0.775474 Br
0.376087 0.017917 0.025404 Br
0.625986 0.017802 0.275606 Br
0.875928 0.017950 0.525459 Br
0.126344 0.517826 0.775235 Br
0.376071 0.517794 0.025363 Br
0.878227 0.518529 0.525547 Br
0.625991 0.018003 0.775500 Br
0.876038 0.017858 0.025483 Br
0.625683 0.517826 0.774630 Br
0.876067 0.518008 0.025524 Br
0.025390 0.982065 0.126179 Br
0.275465 0.982077 0.376185 Br
0.025575 0.482137 0.126420 Br
0.025207 0.982238 0.626030 Br
0.275429 0.981897 0.876046 Br
0.525337 0.981866 0.126273 Br
0.775260 0.982007 0.376247 Br
0.025792 0.482004 0.625797 Br
0.275620 0.482258 0.875636 Br
0.525411 0.482065 0.125837 Br
0.775755 0.481830 0.376523 Br
0.525556 0.982144 0.625925 Br
0.775358 0.981900 0.876049 Br
0.775370 0.482195 0.876041 Br
0.384230 0.372803 0.347251 Cs
0.638684 0.373683 0.607576 Cs
0.602094 0.625838 0.384369 Cs
0.353364 0.630548 0.636348 Cs
0.396992 0.366304 0.621460 Cs
0.648655 0.375146 0.362341 Cs
0.612942 0.624594 0.647107 Cs
0.362546 0.628549 0.384768 Cs
0.249919 0.249057 0.249696 Pb
0.499474 0.249627 0.499731 Pb
0.500172 0.249559 0.249757 Pb
0.250260 0.250232 0.500215 Pb
0.500142 0.499445 0.249530 Pb
0.246601 0.499388 0.499532 Pb
0.249607 0.499358 0.249486 Pb
0.504517 0.493747 0.497092 Pb
0.483355 0.624101 0.729955 Br
0.734339 0.624115 0.478937 Br
0.732286 0.374928 0.736173 Br
0.466931 0.373076 0.484634 Br
0.264284 0.624949 0.261127 Br
0.516867 0.374848 0.269670 Br
0.269100 0.376942 0.523491 Br
0.373808 0.483124 0.720957 Br
0.623692 0.486138 0.474044 Br
0.473378 0.517302 0.373788 Br
0.724509 0.518231 0.623456 Br
0.525738 0.267627 0.625873 Br
0.275126 0.268014 0.376381 Br
0.625900 0.731971 0.275331 Br
0.373744 0.741356 0.528354 Br
0.373851 0.263143 0.728610 Br
0.623093 0.271786 0.475345 Br
0.475335 0.731663 0.374096 Br
0.724055 0.730857 0.623892 Br
0.625922 0.517920 0.275903 Br
0.523759 0.479034 0.623536 Br
0.278282 0.482491 0.377493 Br
0.468645 0.609989 0.517902 Br
