Cs8 Pb8 Br23                            
   1.0000000000000000     
     8.4564889999999995    0.0000000000000000    8.0403009999999995
     0.0000000000000000   11.7298469999999995    0.0000000000000000
    -8.4564889999999995    0.0000000000000000    8.0403009999999995
   Cs   Pb   Br
     8     8    23
Direct
  0.2743430000000018  0.2471559999999968  0.1977680000000035
  0.7728719999999996  0.2319740000000010  0.7383150000000001
  0.7070969999999974  0.7648960000000002  0.2578120000000013
  0.2092269999999985  0.7552900000000022  0.7810350000000028
  0.2617100000000008  0.2377159999999989  0.7283240000000006
  0.8008579999999981  0.2448329999999999  0.2266290000000026
  0.7358830000000012  0.7612359999999967  0.7749799999999993
  0.2245720000000020  0.7541849999999997  0.2960550000000026
  0.0058099999999968  0.9989819999999980  0.0043560000000014
  0.4937279999999973  0.0008619999999979  0.4964969999999980
  0.5021640000000005  0.9995029999999971  0.9968780000000024
  0.9946809999999999  0.9980279999999979  0.4995469999999997
  0.5048600000000008  0.5004440000000017  0.0000760000000000
  0.0011450000000011  0.5012279999999976  0.5060849999999988
  0.0054820000000007  0.5017970000000034  0.0054360000000031
  0.4833380000000034  0.5007599999999996  0.4912259999999975
  0.4850459999999970  0.7476899999999986  0.9540390000000016
  0.9571150000000017  0.7473850000000013  0.4635520000000000
  0.9835690000000028  0.2508389999999991  0.9752569999999992
  0.4456559999999996  0.2530819999999991  0.4755570000000020
  0.0368489999999966  0.7502780000000016  0.0375640000000033
  0.5335249999999974  0.7480270000000004  0.5194520000000011
  0.5379920000000027  0.2509780000000035  0.0278679999999980
  0.0042040000000014  0.2513900000000007  0.5352439999999987
  0.2568399999999968  0.4683739999999972  0.9448429999999988
  0.4591649999999987  0.5347939999999980  0.2399600000000035
  0.9517540000000011  0.5353640000000013  0.7534040000000033
  0.5424939999999978  0.0303090000000026  0.7489490000000032
  0.0534269999999992  0.0354919999999979  0.2547440000000023
  0.7568619999999981  0.9786199999999994  0.0421109999999985
  0.2466640000000027  0.9605869999999967  0.5498139999999978
  0.2523150000000030  0.0297699999999992  0.9510870000000011
  0.7416839999999993  0.0329559999999987  0.4493149999999986
  0.4469780000000014  0.9664939999999973  0.2443910000000002
  0.9587179999999975  0.9703400000000002  0.7492140000000020
  0.7584710000000001  0.5275049999999979  0.0555049999999966
  0.2446240000000017  0.5340890000000016  0.5636129999999966
  0.0577540000000027  0.4650889999999990  0.2609860000000026
  0.6557340000000025  0.4691550000000007  0.6105719999999977

  0.00000000E+00  0.00000000E+00  0.00000000E+00
  0.00000000E+00  0.00000000E+00  0.00000000E+00
  0.00000000E+00  0.00000000E+00  0.00000000E+00
  0.00000000E+00  0.00000000E+00  0.00000000E+00
  0.00000000E+00  0.00000000E+00  0.00000000E+00
  0.00000000E+00  0.00000000E+00  0.00000000E+00
  0.00000000E+00  0.00000000E+00  0.00000000E+00
  0.00000000E+00  0.00000000E+00  0.00000000E+00
  0.00000000E+00  0.00000000E+00  0.00000000E+00
  0.00000000E+00  0.00000000E+00  0.00000000E+00
  0.00000000E+00  0.00000000E+00  0.00000000E+00
  0.00000000E+00  0.00000000E+00  0.00000000E+00
  0.00000000E+00  0.00000000E+00  0.00000000E+00
  0.00000000E+00  0.00000000E+00  0.00000000E+00
  0.00000000E+00  0.00000000E+00  0.00000000E+00
  0.00000000E+00  0.00000000E+00  0.00000000E+00
  0.00000000E+00  0.00000000E+00  0.00000000E+00
  0.00000000E+00  0.00000000E+00  0.00000000E+00
  0.00000000E+00  0.00000000E+00  0.00000000E+00
  0.00000000E+00  0.00000000E+00  0.00000000E+00
  0.00000000E+00  0.00000000E+00  0.00000000E+00
  0.00000000E+00  0.00000000E+00  0.00000000E+00
  0.00000000E+00  0.00000000E+00  0.00000000E+00
  0.00000000E+00  0.00000000E+00  0.00000000E+00
  0.00000000E+00  0.00000000E+00  0.00000000E+00
  0.00000000E+00  0.00000000E+00  0.00000000E+00
  0.00000000E+00  0.00000000E+00  0.00000000E+00
  0.00000000E+00  0.00000000E+00  0.00000000E+00
  0.00000000E+00  0.00000000E+00  0.00000000E+00
  0.00000000E+00  0.00000000E+00  0.00000000E+00
  0.00000000E+00  0.00000000E+00  0.00000000E+00
  0.00000000E+00  0.00000000E+00  0.00000000E+00
  0.00000000E+00  0.00000000E+00  0.00000000E+00
  0.00000000E+00  0.00000000E+00  0.00000000E+00
  0.00000000E+00  0.00000000E+00  0.00000000E+00
  0.00000000E+00  0.00000000E+00  0.00000000E+00
  0.00000000E+00  0.00000000E+00  0.00000000E+00
  0.00000000E+00  0.00000000E+00  0.00000000E+00
  0.00000000E+00  0.00000000E+00  0.00000000E+00
