Cs8 Pb8 Br23
1.0
8.456489 0.000000 8.040301
0.000000 11.729847 0.000000
-8.456489 0.000000 8.040301
Cs Pb Br
8 8 23
direct
0.274343 0.247156 0.197768 Cs
0.772872 0.231974 0.738315 Cs
0.707097 0.764896 0.257812 Cs
0.209227 0.755290 0.781035 Cs
0.261710 0.237716 0.728324 Cs
0.800858 0.244833 0.226629 Cs
0.735883 0.761236 0.774980 Cs
0.224572 0.754185 0.296055 Cs
0.005810 -0.001018 0.004356 Pb
0.493728 0.000862 0.496497 Pb
0.502164 -0.000497 -0.003122 Pb
-0.005319 -0.001972 0.499547 Pb
0.504860 0.500444 0.000076 Pb
0.001145 0.501228 0.506085 Pb
0.005482 0.501797 0.005436 Pb
0.483338 0.500760 0.491226 Pb
0.485046 0.747690 0.954039 Br
0.957115 0.747385 0.463552 Br
0.983569 0.250839 0.975257 Br
0.445656 0.253082 0.475557 Br
0.036849 0.750278 0.037564 Br
0.533525 0.748027 0.519452 Br
0.537992 0.250978 0.027868 Br
0.004204 0.251390 0.535244 Br
0.256840 0.468374 0.944843 Br
0.459165 0.534794 0.239960 Br
0.951754 0.535364 0.753404 Br
0.542494 0.030309 0.748949 Br
0.053427 0.035492 0.254744 Br
0.756862 0.978620 0.042111 Br
0.246664 0.960587 0.549814 Br
0.252315 0.029770 0.951087 Br
0.741684 0.032956 0.449315 Br
0.446978 0.966494 0.244391 Br
0.958718 0.970340 0.749214 Br
0.758471 0.527505 0.055505 Br
0.244624 0.534089 0.563613 Br
0.057754 0.465089 0.260986 Br
0.655734 0.469155 0.610572 Br
