Cs8 Pb8 Br23                            
   1.0000000000000000     
     8.4564889999999995    0.0000000000000000    8.0403009999999995
     0.0000000000000000   11.7298469999999995    0.0000000000000000
    -8.4564889999999995    0.0000000000000000    8.0403009999999995
   Cs   Pb   Br
     8     8    23
Direct
  0.2701830000000029  0.2498959999999997  0.2058120000000017
  0.7708379999999977  0.2365309999999994  0.7341419999999985
  0.7219120000000032  0.7646939999999987  0.2420630000000017
  0.2007880000000029  0.7561949999999982  0.7838500000000010
  0.2785859999999971  0.2436039999999977  0.7275319999999965
  0.7988500000000016  0.2482210000000009  0.2272099999999995
  0.7352029999999985  0.7500840000000011  0.8043520000000015
  0.2227549999999994  0.7504520000000028  0.2709059999999965
  0.0012850000000029  0.0021950000000004  0.9996939999999981
  0.5072630000000018  0.9957119999999975  0.4976699999999994
  0.4982619999999969  0.9996440000000035  0.9992769999999993
  0.0054960000000008  0.0049989999999980  0.4996170000000006
  0.4979480000000009  0.4952770000000015  0.0009000000000015
  0.9939449999999965  0.5142439999999979  0.5008199999999974
  0.0002879999999976  0.4996470000000031  0.0009349999999984
  0.4803959999999989  0.4919000000000011  0.5051619999999986
  0.4736580000000004  0.7473170000000025  0.9654370000000014
  0.9744730000000033  0.7596750000000014  0.4476829999999978
  0.9784229999999994  0.2514719999999997  0.9726550000000032
  0.4786259999999984  0.2346239999999966  0.4687580000000011
  0.0103999999999971  0.7514650000000032  0.0322359999999975
  0.5291050000000013  0.2474440000000016  0.0442340000000030
  0.0116810000000029  0.2615320000000025  0.5353029999999990
  0.2470339999999993  0.4697990000000019  0.9477639999999994
  0.4499619999999993  0.5292450000000031  0.2538830000000019
  0.9476039999999983  0.5348820000000032  0.7466829999999973
  0.5467579999999970  0.0242459999999980  0.7489550000000023
  0.0511640000000000  0.0367839999999973  0.2521079999999998
  0.7532599999999974  0.9889889999999966  0.0381190000000018
  0.2604960000000034  0.9592200000000020  0.5461939999999998
  0.2491130000000013  0.0304239999999965  0.9496609999999990
  0.7533699999999968  0.0323629999999966  0.4469690000000028
  0.4545519999999996  0.9570080000000019  0.2477039999999988
  0.9528279999999967  0.9657780000000002  0.7469210000000004
  0.7517780000000016  0.5212539999999990  0.0504779999999982
  0.2329319999999981  0.5497360000000029  0.5508600000000001
  0.5360760000000013  0.4473589999999987  0.7533809999999974
  0.0479169999999982  0.4664679999999990  0.2540809999999993
  0.6664320000000004  0.6432000000000002  0.5145249999999990

  0.00000000E+00  0.00000000E+00  0.00000000E+00
  0.00000000E+00  0.00000000E+00  0.00000000E+00
  0.00000000E+00  0.00000000E+00  0.00000000E+00
  0.00000000E+00  0.00000000E+00  0.00000000E+00
  0.00000000E+00  0.00000000E+00  0.00000000E+00
  0.00000000E+00  0.00000000E+00  0.00000000E+00
  0.00000000E+00  0.00000000E+00  0.00000000E+00
  0.00000000E+00  0.00000000E+00  0.00000000E+00
  0.00000000E+00  0.00000000E+00  0.00000000E+00
  0.00000000E+00  0.00000000E+00  0.00000000E+00
  0.00000000E+00  0.00000000E+00  0.00000000E+00
  0.00000000E+00  0.00000000E+00  0.00000000E+00
  0.00000000E+00  0.00000000E+00  0.00000000E+00
  0.00000000E+00  0.00000000E+00  0.00000000E+00
  0.00000000E+00  0.00000000E+00  0.00000000E+00
  0.00000000E+00  0.00000000E+00  0.00000000E+00
  0.00000000E+00  0.00000000E+00  0.00000000E+00
  0.00000000E+00  0.00000000E+00  0.00000000E+00
  0.00000000E+00  0.00000000E+00  0.00000000E+00
  0.00000000E+00  0.00000000E+00  0.00000000E+00
  0.00000000E+00  0.00000000E+00  0.00000000E+00
  0.00000000E+00  0.00000000E+00  0.00000000E+00
  0.00000000E+00  0.00000000E+00  0.00000000E+00
  0.00000000E+00  0.00000000E+00  0.00000000E+00
  0.00000000E+00  0.00000000E+00  0.00000000E+00
  0.00000000E+00  0.00000000E+00  0.00000000E+00
  0.00000000E+00  0.00000000E+00  0.00000000E+00
  0.00000000E+00  0.00000000E+00  0.00000000E+00
  0.00000000E+00  0.00000000E+00  0.00000000E+00
  0.00000000E+00  0.00000000E+00  0.00000000E+00
  0.00000000E+00  0.00000000E+00  0.00000000E+00
  0.00000000E+00  0.00000000E+00  0.00000000E+00
  0.00000000E+00  0.00000000E+00  0.00000000E+00
  0.00000000E+00  0.00000000E+00  0.00000000E+00
  0.00000000E+00  0.00000000E+00  0.00000000E+00
  0.00000000E+00  0.00000000E+00  0.00000000E+00
  0.00000000E+00  0.00000000E+00  0.00000000E+00
  0.00000000E+00  0.00000000E+00  0.00000000E+00
  0.00000000E+00  0.00000000E+00  0.00000000E+00
