Cs8 Pb8 Br23
1.0
8.456489 0.000000 8.040301
0.000000 11.729847 0.000000
-8.456489 0.000000 8.040301
Cs Pb Br
8 8 23
direct
0.270183 0.249896 0.205812 Cs
0.770838 0.236531 0.734142 Cs
0.721912 0.764694 0.242063 Cs
0.200788 0.756195 0.783850 Cs
0.278586 0.243604 0.727532 Cs
0.798850 0.248221 0.227210 Cs
0.735203 0.750084 0.804352 Cs
0.222755 0.750452 0.270906 Cs
0.001285 0.002195 -0.000306 Pb
0.507263 -0.004288 0.497670 Pb
0.498262 -0.000356 -0.000723 Pb
0.005496 0.004999 0.499617 Pb
0.497948 0.495277 0.000900 Pb
-0.006055 0.514244 0.500820 Pb
0.000288 0.499647 0.000935 Pb
0.480396 0.491900 0.505162 Pb
0.473658 0.747317 0.965437 Br
0.974473 0.759675 0.447683 Br
0.978423 0.251472 0.972655 Br
0.478626 0.234624 0.468758 Br
0.010400 0.751465 0.032236 Br
0.529105 0.247444 0.044234 Br
0.011681 0.261532 0.535303 Br
0.247034 0.469799 0.947764 Br
0.449962 0.529245 0.253883 Br
0.947604 0.534882 0.746683 Br
0.546758 0.024246 0.748955 Br
0.051164 0.036784 0.252108 Br
0.753260 0.988989 0.038119 Br
0.260496 0.959220 0.546194 Br
0.249113 0.030424 0.949661 Br
0.753370 0.032363 0.446969 Br
0.454552 0.957008 0.247704 Br
0.952828 0.965778 0.746921 Br
0.751778 0.521254 0.050478 Br
0.232932 0.549736 0.550860 Br
0.536076 0.447359 0.753381 Br
0.047917 0.466468 0.254081 Br
0.666432 0.643200 0.514525 Br
