Cs Pb Br                                
   1.0000000000000000     
     8.4200180000000007    0.0000000000000000    8.0779809999999994
     0.0000000000000000   11.7638079999999992    0.0000000000000000
    -8.4200180000000007    0.0000000000000000    8.0779809999999994
   Cs   Pb   Br
     8     8    24
Selective dynamics
Direct
  0.2721250000000026  0.2500000000000000  0.2082359999999994   F   F   F
  0.8104962266423570  0.2953695984982687  0.6508338896648524   T   T   T
  0.8191527397154346  0.8817702435678285  0.0797456319368450   T   T   T
  0.3296619891925658  0.8908043247420139  0.7194506831498089   T   T   T
  0.3362509002929670  0.4122273777787981  0.6841504321440866   T   T   T
  0.8265452130740840  0.3602691484761849  0.1739333561484813   T   T   T
  0.8327482670498796  0.7733819795374401  0.6443085667777169   T   T   T
  0.3379882290387002  0.7559822454151544  0.1932143893997420   T   T   T
  0.0440736670202782  0.1011386428702750  0.9055380112265894   T   T   T
  0.5178324476771579  0.0778161624039981  0.4108781036504894   T   T   T
  0.5305569130921626  0.0909066539705492  0.9061536053303669   T   T   T
  0.0321794447648216  0.0900318395912265  0.4247809106587965   T   T   T
  0.6150948580131583  0.5368724544033086  0.9099734630368204   T   T   T
  0.0817816709595292  0.5939000912976411  0.3936279685862800   T   T   T
  0.1160224036535809  0.6071153038787145  0.8764920367802631   T   T   T
  0.5895861465284327  0.5963897315001248  0.4069404277229367   T   T   T
  0.5930361032965479  0.8200468880080081  0.8723946440616146   T   T   T
  0.9798915786736018  0.8479667370835315  0.3666217811948655   T   T   T
  0.0763660224398421  0.3557811314216863  0.8080574962716582   T   T   T
  0.6016527913799621  0.3190949996487120  0.3783472626070221   T   T   T
  0.1130095770375092  0.8508392003841152  0.9547954198519122   T   T   T
  0.5286031624230176  0.8299628658795086  0.4115288782149520   T   T   T
  0.5388705404397882  0.3540779165438934  0.0308100406698060   T   T   T
  0.0907636236452589  0.3231945051467306  0.4591658338260842   T   T   T
  0.3628948453962195  0.5911137251594525  0.9018685471041579   T   T   T
  0.8411563268865834  0.5258135042426488  0.4148995674464757   T   T   T
  0.6461568410620089  0.6136770935882652  0.1595335816492636   T   T   T
  0.1314121987127734  0.6637059800058154  0.6255761795069432   T   T   T
  0.4731784839417870  0.1525283511913642  0.6625493221639331   T   T   T
  0.0107033322787942  0.1133906330247498  0.1614958501671211   T   T   T
  0.7739427839293285  0.1456381831474403  0.9200290499676456   T   T   T
  0.2602958646565341  0.0175883843430427  0.3927811384804727   T   T   T
  0.2843317109612329  0.0905443591837738  0.9158544431448234   T   T   T
  0.7811352845485686  0.0758407517787916  0.4179866596883315   T   T   T
  0.5169862256057058  0.0178304016338302  0.1578321213872798   T   T   T
  0.0254765281110352  0.0231613310727568  0.6559466392161397   T   T   T
  0.8535737471167693  0.6008830800288294  0.9050931125723025   T   T   T
  0.3366048309527017  0.5462323403473093  0.4127162232888253   T   T   T
  0.6300953089421171  0.5359479097310498  0.6518656149129924   T   T   T
  0.1113570649875797  0.5151480148024632  0.1380588921351915   T   T   T

  0.00000000E+00  0.00000000E+00  0.00000000E+00
  0.00000000E+00  0.00000000E+00  0.00000000E+00
  0.00000000E+00  0.00000000E+00  0.00000000E+00
  0.00000000E+00  0.00000000E+00  0.00000000E+00
  0.00000000E+00  0.00000000E+00  0.00000000E+00
  0.00000000E+00  0.00000000E+00  0.00000000E+00
  0.00000000E+00  0.00000000E+00  0.00000000E+00
  0.00000000E+00  0.00000000E+00  0.00000000E+00
  0.00000000E+00  0.00000000E+00  0.00000000E+00
  0.00000000E+00  0.00000000E+00  0.00000000E+00
  0.00000000E+00  0.00000000E+00  0.00000000E+00
  0.00000000E+00  0.00000000E+00  0.00000000E+00
  0.00000000E+00  0.00000000E+00  0.00000000E+00
  0.00000000E+00  0.00000000E+00  0.00000000E+00
  0.00000000E+00  0.00000000E+00  0.00000000E+00
  0.00000000E+00  0.00000000E+00  0.00000000E+00
  0.00000000E+00  0.00000000E+00  0.00000000E+00
  0.00000000E+00  0.00000000E+00  0.00000000E+00
  0.00000000E+00  0.00000000E+00  0.00000000E+00
  0.00000000E+00  0.00000000E+00  0.00000000E+00
  0.00000000E+00  0.00000000E+00  0.00000000E+00
  0.00000000E+00  0.00000000E+00  0.00000000E+00
  0.00000000E+00  0.00000000E+00  0.00000000E+00
  0.00000000E+00  0.00000000E+00  0.00000000E+00
  0.00000000E+00  0.00000000E+00  0.00000000E+00
  0.00000000E+00  0.00000000E+00  0.00000000E+00
  0.00000000E+00  0.00000000E+00  0.00000000E+00
  0.00000000E+00  0.00000000E+00  0.00000000E+00
  0.00000000E+00  0.00000000E+00  0.00000000E+00
  0.00000000E+00  0.00000000E+00  0.00000000E+00
  0.00000000E+00  0.00000000E+00  0.00000000E+00
  0.00000000E+00  0.00000000E+00  0.00000000E+00
  0.00000000E+00  0.00000000E+00  0.00000000E+00
  0.00000000E+00  0.00000000E+00  0.00000000E+00
  0.00000000E+00  0.00000000E+00  0.00000000E+00
  0.00000000E+00  0.00000000E+00  0.00000000E+00
  0.00000000E+00  0.00000000E+00  0.00000000E+00
  0.00000000E+00  0.00000000E+00  0.00000000E+00
  0.00000000E+00  0.00000000E+00  0.00000000E+00
  0.00000000E+00  0.00000000E+00  0.00000000E+00
