Cs Pb Br 
 1.0000000000000000
     8.4200180000000007    0.0000000000000000    8.0779809999999994
     0.0000000000000000   11.7638079999999992    0.0000000000000000
    -8.4200180000000007    0.0000000000000000    8.0779809999999994
 Cs  Pb  Br 
   8   8  24
Selective dynamics
Cartesian
  0.5379465300020001  2.9409519999999998  3.8803470311410000   F   F   F
  1.3443597512726810  3.4746712457707534 11.8045969142574414   T   T   T
  6.2258211568236481 10.3729758454451861  7.2612839671380245   T   T   T
 -3.2820278193165051 10.4792510418346989  8.4747122340409060   T   T   T
 -2.9293203203779554  4.8493637245332826  8.2427825758012130   T   T   T
  5.4950035823269774  4.2381370909973661  8.0818468730870929   T   T   T
  1.5866656682062130  9.0979171179383620 11.9316370395794848   T   T   T
  1.2189983356891783  8.8932299864727451  4.2910446588959665   T   T   T
  1.1664727154246082  1.1897755761065116 -0.4070359057436934   T   T   T
  0.9005575018827012  0.9154143938174365  7.5021061881242534   T   T   T
 -3.1625309093861529  1.0694084232319956 11.6057202703173417   T   T   T
 -3.3057114096536582  1.0591172748380080  3.6913170688652812   T   T   T
 -2.4828831621140828  6.3156644740892371 12.3194729211436176   T   T   T
 -2.6257514392505912  6.9865266452079453  3.8403500354679241   T   T   T
  2.0168500006199328  7.1419878686908262 -0.0604682079498233   T   T   T
  1.5378802399652196  7.0158142945389841  8.0499227327976950   T   T   T
 -2.3522039416956457  9.6468741415236714 11.8377217339750374   T   T   T
  5.1637427336273358  9.9753178854371143 10.8771093372636205   T   T   T
  2.2591626198895973  4.1853409200674614 15.2223373801046371   T   T   T
  1.8802365717676532  3.7537723096275193  7.9164218161058137   T   T   T
  1.3321660513575684 10.0091089921922798  0.5477274765778403   T   T   T
  0.9857675803690467  9.7635238013363281  7.5943687617647075   T   T   T
  4.2778785531522709  4.1653046272624250  4.6018689102722865   T   T   T
 -3.1019532409623669  3.8019981052011853  4.4423197087938142   T   T   T
 -4.5381682699075059  6.9537483689405404 10.2167346541135977   T   T   T
  3.5890895871073702  6.1855691077176980 10.1463956493604481   T   T   T
  4.0973766034739647  7.2191795029704142  6.5083519265436376   T   T   T
  4.2591483867613897  7.8077097172402539 14.1929187364796885   T   T   T
 -1.5945058665055143  1.7943142379717485  9.1743876388936876   T   T   T
 -1.2696757148850788  1.3339056359016350  1.3910217240136273   T   T   T
  7.1899690104045879 13.4770676240153566  5.6058912887549415   T   T   T
 -1.1155283903324806 11.9707143764417339  5.2755436228776480   T   T   T
 -5.3174327723950432  1.0651464569209157  9.6950809493317767   T   T   T
  3.0577179579983951  0.8921760425013633  9.6864842822287311   T   T   T
  3.0240840222930578 11.9735614213832395  5.4511697854607659   T   T   T
  3.1114483160330315 12.0362734517643197 13.5825043986287799   T   T   T
  7.9862240155158819  7.0686731839077597  6.1284964778979898   T   T   T
 -0.6408592934752172  6.4257723752364209  6.0530012390630219   T   T   T
 -0.1833063681402544  6.3047883080773710 10.3556559856440362   T   T   T
 -0.2248298652158017  6.0601023377173613  2.0147773627345846   T   T   T
