Cs64 Pb64 Br191
1.0
16.840035 0.000000 16.155961
0.000000 23.527616 0.000000
-16.840035 0.000000 16.155961
Cs Pb Br Cs Pb Br
56 56 168 8 8 23
direct
0.886409 0.875416 0.352438 Cs
0.136725 0.875250 0.604270 Cs
0.886305 0.375037 0.352159 Cs
0.137863 0.375117 0.604476 Cs
0.886552 0.875371 0.854241 Cs
0.136395 0.875276 0.103754 Cs
0.385851 0.875353 0.354090 Cs
0.635153 0.875273 0.604327 Cs
0.886579 0.374940 0.854365 Cs
0.136168 0.375070 0.103402 Cs
0.386217 0.875455 0.854079 Cs
0.636178 0.875365 0.103627 Cs
0.386283 0.374962 0.853854 Cs
0.636282 0.375002 0.103730 Cs
0.103735 0.125172 0.386197 Cs
0.353548 0.125169 0.636182 Cs
0.104839 0.625149 0.385722 Cs
0.104014 0.125153 0.886545 Cs
0.353642 0.125189 0.136167 Cs
0.603067 0.125123 0.385584 Cs
0.854306 0.125145 0.636927 Cs
0.103780 0.625180 0.886056 Cs
0.354252 0.625167 0.136501 Cs
0.859889 0.625529 0.643552 Cs
0.603818 0.125152 0.886445 Cs
0.853899 0.125191 0.136106 Cs
0.603615 0.625291 0.886983 Cs
0.854231 0.625168 0.136153 Cs
0.896684 0.875266 0.114038 Cs
0.146742 0.875101 0.364084 Cs
0.896767 0.375052 0.114058 Cs
0.146731 0.375121 0.363879 Cs
0.900098 0.875473 0.617247 Cs
0.146791 0.875345 0.864292 Cs
0.396335 0.875353 0.113981 Cs
0.645667 0.875376 0.363018 Cs
0.900432 0.374778 0.617463 Cs
0.146906 0.375002 0.864320 Cs
0.396314 0.374987 0.113895 Cs
0.396641 0.875326 0.614034 Cs
0.646590 0.875307 0.864126 Cs
0.646416 0.375080 0.864101 Cs
0.114154 0.125168 0.146614 Cs
0.363909 0.125166 0.396312 Cs
0.113804 0.625157 0.146822 Cs
0.114314 0.125165 0.646306 Cs
0.364040 0.125153 0.896745 Cs
0.613970 0.125187 0.146555 Cs
0.865288 0.125169 0.396179 Cs
0.114902 0.625084 0.646705 Cs
0.364248 0.625205 0.896620 Cs
0.613747 0.625119 0.146263 Cs
0.871018 0.625221 0.390279 Cs
0.614105 0.125095 0.647522 Cs
0.864140 0.125168 0.896743 Cs
0.864481 0.625166 0.897999 Cs
0.750089 0.750434 0.249380 Pb
0.000488 0.750263 0.500333 Pb
0.750058 0.250081 0.249931 Pb
0.000258 0.250597 0.500130 Pb
0.750062 0.750176 0.750450 Pb
0.000220 0.750438 0.000055 Pb
0.249931 0.750426 0.249855 Pb
0.499911 0.750274 0.500233 Pb
0.750058 0.250473 0.750300 Pb
0.000211 0.250211 0.000179 Pb
0.250210 0.750524 0.750349 Pb
0.499928 0.750511 0.000003 Pb
0.250266 0.250193 0.750235 Pb
0.500073 0.250289 0.000130 Pb
0.000541 0.750783 0.249644 Pb
0.250200 0.750390 0.500284 Pb
0.000301 0.250168 0.250006 Pb
0.000815 0.750779 0.750874 Pb
0.250129 0.750392 0.000116 Pb
0.499703 0.751090 0.249638 Pb
0.751740 0.754826 0.501012 Pb
0.000463 0.249784 0.750385 Pb
0.250143 0.250371 0.000155 Pb
0.750208 0.248636 0.500129 Pb
0.499747 0.750842 0.750534 Pb
0.750124 0.750507 0.000061 Pb
0.499956 0.250016 0.750296 Pb
0.750159 0.250399 0.000130 Pb
0.000221 0.000415 0.249936 Pb
0.250029 0.000393 0.500054 Pb
0.000533 0.499819 0.249656 Pb
0.000358 0.000645 0.750368 Pb
0.250093 0.000374 0.000109 Pb
0.499878 0.000499 0.249883 Pb
0.750142 0.001488 0.500037 Pb
0.000888 0.499580 0.750849 Pb
0.250060 0.500456 0.000105 Pb
0.753097 0.495420 0.502509 Pb
0.499928 0.000454 0.750218 Pb
0.750093 0.000401 0.000108 Pb
0.499827 0.500040 0.750552 Pb
0.750105 0.500281 0.000111 Pb
0.750097 0.000609 0.249896 Pb
0.000252 0.000115 0.500094 Pb
0.750178 0.500255 0.249697 Pb
0.000807 0.500162 0.500449 Pb
0.750131 0.000310 0.750456 Pb
0.000219 0.000442 0.000201 Pb
0.250062 0.000550 0.250044 Pb
0.500012 0.000598 0.500193 Pb
0.750164 0.500470 0.750588 Pb
0.000255 0.500304 0.000081 Pb
0.250212 0.000457 0.750257 Pb
0.500078 0.000520 0.000144 Pb
0.250342 0.500250 0.750452 Pb
0.499945 0.500316 0.000028 Pb
0.984322 0.125455 0.231156 Br
0.234477 0.125612 0.480971 Br
0.983598 0.625463 0.233372 Br
0.233895 0.625454 0.481265 Br
0.984773 0.125373 0.730395 Br
0.234615 0.125548 0.981095 Br
0.484536 0.125437 0.231023 Br
0.735126 0.125099 0.481255 Br
0.988591 0.625301 0.734795 Br
0.234535 0.625592 0.980725 Br
0.485753 0.625288 0.233515 Br
0.484184 0.125406 0.730584 Br
0.734613 0.125556 0.981103 Br
0.734409 0.625534 0.981523 Br
0.231007 0.875434 0.234664 Br
0.482350 0.875415 0.484555 Br
0.230210 0.375408 0.234081 Br
0.231008 0.875567 0.734701 Br
0.481002 0.875593 0.984835 Br
0.731252 0.875392 0.234888 Br
0.978198 0.875115 0.484991 Br
0.231407 0.375516 0.734961 Br
0.481019 0.375577 0.984618 Br
0.730878 0.375637 0.235490 Br
0.977808 0.375966 0.484812 Br
0.730781 0.875180 0.733547 Br
0.980959 0.875478 0.984725 Br
0.981063 0.375443 0.984809 Br
0.770087 0.125505 0.266561 Br
0.018776 0.125568 0.515707 Br
0.769974 0.625551 0.266540 Br
0.021599 0.625517 0.515267 Br
0.769467 0.125615 0.765761 Br
0.019738 0.125462 0.016103 Br
0.269655 0.125519 0.265971 Br
0.520861 0.125568 0.516239 Br
0.769496 0.625553 0.768100 Br
0.019510 0.625482 0.015871 Br
0.269962 0.125518 0.766005 Br
0.519949 0.125603 0.016147 Br
0.268789 0.625609 0.766785 Br
0.519194 0.625603 0.016196 Br
0.016329 0.875557 0.269498 Br
0.266115 0.875365 0.519471 Br
0.016370 0.375364 0.269395 Br
0.015895 0.875662 0.769450 Br
0.265961 0.875545 0.019633 Br
0.515447 0.875493 0.270015 Br
0.767803 0.871093 0.521210 Br
0.015942 0.375026 0.769695 Br
0.265920 0.375612 0.019494 Br
0.767689 0.378947 0.522594 Br
0.516110 0.875569 0.769729 Br
0.766007 0.875475 0.019795 Br
0.516147 0.375419 0.768901 Br
0.766109 0.375651 0.019863 Br
0.873926 0.982187 0.224714 Br
0.123864 0.981998 0.474771 Br
0.873914 0.482259 0.224841 Br
0.123831 0.481511 0.475623 Br
0.873961 0.982504 0.724956 Br
0.124003 0.982246 0.974703 Br
0.374087 0.982194 0.224750 Br
0.625126 0.981871 0.474933 Br
0.874046 0.482617 0.725072 Br
0.123986 0.482225 0.974590 Br
0.374150 0.481973 0.224682 Br
0.374094 0.982127 0.724597 Br
0.624131 0.982188 0.974714 Br
0.624159 0.482219 0.974791 Br
0.974665 0.017829 0.374142 Br
0.224696 0.018051 0.623935 Br
0.976976 0.516600 0.374213 Br
0.225650 0.518535 0.623957 Br
0.974633 0.018180 0.873939 Br
0.224638 0.018098 0.124072 Br
0.474793 0.018170 0.374185 Br
0.724704 0.017852 0.623509 Br
0.974485 0.517809 0.874025 Br
0.224596 0.518235 0.124034 Br
0.474682 0.018168 0.873975 Br
0.724666 0.018114 0.124288 Br
0.474682 0.517836 0.874168 Br
0.724824 0.518181 0.124576 Br
0.025780 0.768036 0.126174 Br
0.275342 0.767958 0.376366 Br
0.025624 0.268048 0.126258 Br
0.025375 0.767898 0.626262 Br
0.275794 0.768259 0.876230 Br
0.525734 0.768057 0.126505 Br
0.777155 0.765812 0.377173 Br
0.026087 0.268422 0.626198 Br
0.275670 0.268035 0.876147 Br
0.525671 0.268213 0.126317 Br
0.775384 0.268529 0.376979 Br
0.525743 0.767832 0.626195 Br
0.775521 0.768254 0.875707 Br
0.775508 0.268254 0.876031 Br
0.126133 0.232152 0.275711 Br
0.376629 0.232342 0.525265 Br
0.126177 0.732294 0.275443 Br
0.126211 0.232091 0.775664 Br
0.376264 0.232243 0.025658 Br
0.626269 0.232305 0.275784 Br
0.875938 0.232420 0.526122 Br
0.126335 0.733022 0.776063 Br
0.376260 0.732220 0.025756 Br
0.874558 0.725054 0.524062 Br
0.626257 0.232130 0.775604 Br
0.876130 0.232240 0.025556 Br
0.626296 0.732449 0.776159 Br
0.876101 0.732288 0.025675 Br
0.873919 0.768039 0.224816 Br
0.123488 0.768605 0.475753 Br
0.873890 0.268148 0.224714 Br
0.123920 0.268554 0.474809 Br
0.874019 0.767747 0.724941 Br
0.123956 0.768141 0.974608 Br
0.374133 0.768051 0.224499 Br
0.625843 0.765937 0.473012 Br
0.873930 0.267817 0.724976 Br
0.123997 0.268058 0.974663 Br
0.374084 0.268378 0.224921 Br
0.374177 0.768363 0.724551 Br
0.624107 0.768137 0.974707 Br
0.624112 0.268174 0.974711 Br
0.974707 0.232531 0.374175 Br
0.224752 0.232224 0.623946 Br
0.976904 0.734135 0.374172 Br
0.224868 0.732231 0.624043 Br
0.974670 0.232091 0.873939 Br
0.224685 0.232178 0.124094 Br
0.474813 0.232165 0.374272 Br
0.724595 0.232331 0.623563 Br
0.974403 0.732512 0.874045 Br
0.224593 0.732128 0.124087 Br
0.474690 0.232160 0.873986 Br
0.724695 0.232228 0.124338 Br
0.474453 0.732865 0.874152 Br
0.724711 0.732074 0.124357 Br
0.126158 0.018127 0.275700 Br
0.376543 0.018050 0.525463 Br
0.126185 0.518040 0.275487 Br
0.126194 0.018244 0.775648 Br
0.376281 0.018133 0.025661 Br
0.626294 0.018013 0.275720 Br
0.875833 0.017865 0.525988 Br
0.126392 0.517547 0.775864 Br
0.376276 0.518166 0.025729 Br
0.875809 0.525387 0.525246 Br
0.626299 0.018129 0.775596 Br
0.876153 0.018090 0.025603 Br
0.626362 0.518152 0.776297 Br
0.876132 0.518074 0.025668 Br
0.025620 0.982217 0.126251 Br
0.275493 0.982282 0.376308 Br
0.025774 0.482355 0.126170 Br
0.025754 0.982162 0.626146 Br
0.275614 0.982317 0.876182 Br
0.525654 0.982198 0.126309 Br
0.775374 0.981918 0.376865 Br
0.025828 0.482233 0.626284 Br
0.275850 0.482174 0.876128 Br
0.525603 0.482161 0.126472 Br
0.777587 0.485484 0.377780 Br
0.525644 0.982268 0.626132 Br
0.775553 0.982114 0.876030 Br
0.775571 0.482086 0.875798 Br
0.386734 0.375011 0.356351 Cs
0.634196 0.375315 0.603847 Cs
0.593003 0.625329 0.379146 Cs
0.353576 0.625292 0.637920 Cs
0.397818 0.375148 0.614141 Cs
0.645834 0.375670 0.364090 Cs
0.611565 0.625459 0.652772 Cs
0.361961 0.625284 0.395797 Cs
0.250090 0.250384 0.249989 Pb
0.500116 0.249925 0.500221 Pb
0.499955 0.250281 0.249935 Pb
0.250122 0.250429 0.500120 Pb
0.499710 0.499268 0.249616 Pb
0.250297 0.500358 0.500210 Pb
0.250007 0.499978 0.249887 Pb
0.500256 0.501917 0.500334 Pb
0.482278 0.625560 0.734468 Br
0.730109 0.376003 0.733146 Br
0.485146 0.376314 0.485679 Br
0.268791 0.625316 0.265294 Br
0.524630 0.626211 0.516697 Br
0.515923 0.375231 0.270757 Br
0.267357 0.375687 0.519972 Br
0.374290 0.482019 0.724478 Br
0.626776 0.486502 0.473967 Br
0.473563 0.518124 0.374207 Br
0.726297 0.524138 0.622949 Br
0.525667 0.267795 0.626191 Br
0.275587 0.268161 0.376326 Br
0.626368 0.733011 0.275622 Br
0.376726 0.731544 0.525614 Br
0.374102 0.268249 0.724437 Br
0.625269 0.268180 0.475003 Br
0.473169 0.732694 0.374280 Br
0.725653 0.727925 0.622552 Br
0.626377 0.517664 0.275548 Br
0.376934 0.519703 0.525149 Br
0.526371 0.484428 0.626189 Br
0.275477 0.482133 0.376296 Br
