Cs64 Pb64 Br191
1.0
16.840035 0.000000 16.155961
0.000000 23.527616 0.000000
-16.840035 0.000000 16.155961
Cs Pb Br Cs Pb Br
56 56 168 8 8 23
Selective dynamics
direct
0.885882 0.875121 0.353715 F F F
0.135705 0.875167 0.603470 F F F
0.886187 0.374592 0.353232 F F F
0.136496 0.373377 0.606806 F F F
0.886070 0.875101 0.853894 F F F
0.135654 0.875195 0.103039 F F F
0.386212 0.875725 0.353729 F F F
0.636007 0.875146 0.603657 F F F
0.885963 0.374895 0.853702 F F F
0.135886 0.374782 0.103262 F F F
0.386079 0.875169 0.853945 F F F
0.636014 0.875114 0.103444 F F F
0.385986 0.374577 0.854077 F F F
0.636006 0.374861 0.103218 F F F
0.103457 0.124928 0.385963 F F F
0.353213 0.124026 0.636808 F F F
0.104209 0.626724 0.385614 F F F
0.103544 0.124870 0.886159 F F F
0.353531 0.124866 0.135773 F F F
0.603651 0.124928 0.385824 F F F
0.853494 0.124872 0.636113 F F F
0.103672 0.624996 0.886280 F F F
0.353621 0.625133 0.135439 F F F
0.853312 0.625990 0.637315 F F F
0.603798 0.124671 0.886385 F F F
0.853536 0.124849 0.135869 F F F
0.603868 0.624948 0.886130 F F F
0.853779 0.625142 0.136015 F F F
0.896369 0.875063 0.113933 F F F
0.146119 0.875355 0.363954 F F F
0.896178 0.374978 0.114078 F F F
0.145972 0.372436 0.361091 F F F
0.896359 0.875149 0.614042 F F F
0.146140 0.875169 0.864189 F F F
0.396232 0.875012 0.114137 F F F
0.646452 0.875142 0.364095 F F F
0.897295 0.373967 0.614775 F F F
0.146330 0.374829 0.863794 F F F
0.396180 0.374857 0.113733 F F F
0.396389 0.875269 0.614237 F F F
0.646637 0.875088 0.864253 F F F
0.645691 0.374839 0.864041 F F F
0.113662 0.124840 0.146192 F F F
0.364129 0.124861 0.396748 F F F
0.114178 0.625116 0.146804 F F F
0.114029 0.124796 0.646623 F F F
0.363982 0.124982 0.896429 F F F
0.614043 0.124833 0.146321 F F F
0.863942 0.124934 0.396475 F F F
0.113346 0.625787 0.647966 F F F
0.364047 0.625183 0.897327 F F F
0.613474 0.625205 0.146807 F F F
0.863744 0.625677 0.393648 F F F
0.614224 0.124689 0.646269 F F F
0.864032 0.124908 0.896697 F F F
0.863953 0.625142 0.896656 F F F
0.749999 0.750452 0.249718 F F F
0.999886 0.750256 0.500046 F F F
0.750164 0.249528 0.249714 F F F
0.000003 0.249917 0.499998 F F F
0.750015 0.750398 0.750162 F F F
0.999963 0.749962 0.000028 F F F
0.249256 0.751580 0.249147 F F F
0.500259 0.750416 0.500424 F F F
0.750292 0.249553 0.750292 F F F
0.999941 0.249996 0.000042 F F F
0.249687 0.750527 0.750402 F F F
0.500002 0.750181 0.999852 F F F
0.249485 0.249127 0.750548 F F F
0.500119 0.249725 0.000206 F F F
0.999929 0.750424 0.249864 F F F
0.250092 0.750612 0.499927 F F F
0.999773 0.249578 0.249772 F F F
0.999891 0.750325 0.750177 F F F
0.249894 0.750327 0.999964 F F F
0.500362 0.750968 0.249478 F F F
0.750267 0.749991 0.500078 F F F
0.999805 0.249648 0.750190 F F F
0.249929 0.249813 0.000001 F F F
0.749934 0.250154 0.500122 F F F
0.500313 0.750222 0.750404 F F F
0.750008 0.750072 0.000064 F F F
0.500704 0.248562 0.750655 F F F
0.750071 0.249905 0.000013 F F F
0.999924 0.999953 0.249948 F F F
0.249910 0.000343 0.499997 F F F
0.000050 0.499971 0.249836 F F F
0.999949 0.000001 0.750079 F F F
0.249969 0.000063 0.000015 F F F
0.500018 0.000264 0.249867 F F F
0.750001 0.000161 0.500010 F F F
0.999802 0.500125 0.750248 F F F
0.249862 0.499884 0.000048 F F F
0.753622 0.499866 0.500283 F F F
0.500151 0.999628 0.750188 F F F
0.750023 0.999962 0.000044 F F F
0.499717 0.500069 0.750103 F F F
0.750071 0.500023 0.999987 F F F
0.750008 0.000022 0.249934 F F F
0.999951 0.000209 0.500032 F F F
0.749812 0.499995 0.249452 F F F
0.999068 0.500505 0.500476 F F F
0.750064 0.999845 0.750112 F F F
0.999945 0.000019 0.000007 F F F
0.249935 0.000451 0.249911 F F F
0.500055 0.000234 0.500048 F F F
0.750222 0.500266 0.750287 F F F
0.999957 0.500058 0.000044 F F F
0.249854 0.999635 0.750156 F F F
0.499985 0.999983 0.000035 F F F
0.250199 0.500316 0.750558 F F F
0.500007 0.499942 0.999961 F F F
0.984052 0.124931 0.230607 F F F
0.234184 0.126027 0.480993 F F F
0.984498 0.624939 0.231472 F F F
0.240899 0.623783 0.477376 F F F
0.984203 0.124996 0.730412 F F F
0.234283 0.125062 0.980588 F F F
0.484071 0.125358 0.230483 F F F
0.733832 0.125622 0.480796 F F F
0.983882 0.624992 0.730885 F F F
0.234305 0.624936 0.981312 F F F
0.482838 0.625277 0.233179 F F F
0.484633 0.124252 0.730232 F F F
0.734316 0.124997 0.980864 F F F
0.734223 0.624938 0.980781 F F F
0.229686 0.875726 0.233659 F F F
0.480780 0.874713 0.484995 F F F
0.231780 0.374861 0.233642 F F F
0.229940 0.874643 0.733919 F F F
0.480410 0.874940 0.984552 F F F
0.730242 0.875046 0.234273 F F F
0.980988 0.874840 0.484422 F F F
0.233294 0.375142 0.734568 F F F
0.480782 0.375034 0.984512 F F F
0.731877 0.374919 0.232743 F F F
0.980948 0.375909 0.484229 F F F
0.730165 0.874940 0.734130 F F F
0.980839 0.874915 0.984467 F F F
0.980517 0.375129 0.984507 F F F
0.769605 0.124997 0.265953 F F F
0.019632 0.125448 0.515841 F F F
0.768290 0.624890 0.265003 F F F
0.020950 0.624493 0.515983 F F F
0.769581 0.124871 0.765967 F F F
0.019140 0.125075 0.015681 F F F
0.270177 0.125205 0.266246 F F F
0.519338 0.125993 0.515224 F F F
0.768873 0.625074 0.766263 F F F
0.019657 0.624909 0.016009 F F F
0.268234 0.124537 0.766326 F F F
0.519410 0.124983 0.015922 F F F
0.269310 0.625081 0.767105 F F F
0.519090 0.624863 0.015577 F F F
0.015555 0.875012 0.269730 F F F
0.265848 0.874814 0.519379 F F F
0.015100 0.374909 0.268851 F F F
0.015673 0.874957 0.769436 F F F
0.265809 0.875034 0.019510 F F F
0.515816 0.875455 0.269406 F F F
0.765480 0.874815 0.519207 F F F
0.015660 0.375096 0.768622 F F F
0.265779 0.375081 0.019108 F F F
0.766056 0.375634 0.521651 F F F
0.515941 0.874418 0.769781 F F F
0.765686 0.874926 0.019437 F F F
0.514212 0.374536 0.767339 F F F
0.765607 0.375096 0.019221 F F F
0.873878 0.981944 0.224620 F F F
0.124004 0.982153 0.474602 F F F
0.873806 0.482361 0.224883 F F F
0.128164 0.481399 0.473956 F F F
0.873865 0.981952 0.724547 F F F
0.123933 0.982105 0.974591 F F F
0.373870 0.981960 0.224651 F F F
0.623807 0.982150 0.474611 F F F
0.873919 0.482246 0.724119 F F F
0.123989 0.481920 0.974451 F F F
0.373863 0.482470 0.224414 F F F
0.373868 0.981897 0.724668 F F F
0.623854 0.982007 0.974604 F F F
0.623796 0.482102 0.974499 F F F
0.974534 0.018022 0.374039 F F F
0.224515 0.017873 0.623844 F F F
0.975196 0.518107 0.374853 F F F
0.226091 0.521543 0.622899 F F F
0.974529 0.017961 0.873895 F F F
0.224530 0.018152 0.123994 F F F
0.474528 0.017929 0.374080 F F F
0.724567 0.017925 0.623862 F F F
0.974543 0.517914 0.873817 F F F
0.224415 0.517353 0.124229 F F F
0.474511 0.017959 0.873886 F F F
0.724518 0.017948 0.123987 F F F
0.473928 0.517272 0.873236 F F F
0.724217 0.518062 0.124247 F F F
0.025481 0.767906 0.126201 F F F
0.275302 0.768547 0.375899 F F F
0.025444 0.267920 0.126165 F F F
0.025471 0.767908 0.626054 F F F
0.275503 0.768121 0.875866 F F F
0.525552 0.767918 0.125973 F F F
0.775365 0.767845 0.376157 F F F
0.025352 0.267798 0.626044 F F F
0.275234 0.267943 0.876185 F F F
0.525479 0.268043 0.126250 F F F
0.775399 0.268178 0.376241 F F F
0.525420 0.767805 0.626067 F F F
0.775440 0.768027 0.876023 F F F
0.775422 0.267909 0.876113 F F F
0.126143 0.231970 0.275500 F F F
0.376135 0.230879 0.526518 F F F
0.125943 0.732680 0.275570 F F F
0.125799 0.232153 0.775622 F F F
0.376075 0.232044 0.025429 F F F
0.626060 0.231949 0.275462 F F F
0.875940 0.232192 0.525447 F F F
0.126101 0.731956 0.775578 F F F
0.376059 0.732161 0.025467 F F F
0.876218 0.731582 0.525392 F F F
0.626161 0.231888 0.775816 F F F
0.876077 0.232094 0.025561 F F F
0.625964 0.731818 0.775389 F F F
0.876072 0.732007 0.025503 F F F
0.873784 0.767932 0.224583 F F F
0.124175 0.767503 0.474310 F F F
0.873904 0.267807 0.224557 F F F
0.124205 0.269415 0.475303 F F F
0.873857 0.768006 0.724473 F F F
0.123933 0.767931 0.974449 F F F
0.373697 0.767518 0.225606 F F F
0.624020 0.767541 0.474739 F F F
0.873799 0.267822 0.724602 F F F
0.123929 0.268047 0.974519 F F F
0.373934 0.267765 0.224182 F F F
0.373835 0.767887 0.724394 F F F
0.623843 0.767929 0.974502 F F F
0.623871 0.267921 0.974626 F F F
0.974635 0.232078 0.374041 F F F
0.224751 0.232073 0.623992 F F F
0.974683 0.732026 0.374076 F F F
0.224805 0.731434 0.623591 F F F
0.974474 0.232071 0.873871 F F F
0.224411 0.231879 0.124136 F F F
0.474496 0.232175 0.374090 F F F
0.724425 0.232129 0.623934 F F F
0.974545 0.731992 0.873898 F F F
0.224264 0.732581 0.123773 F F F
0.474868 0.231966 0.874007 F F F
0.724462 0.231919 0.124057 F F F
0.474427 0.731857 0.873780 F F F
0.724310 0.732000 0.123968 F F F
0.126109 0.018130 0.275534 F F F
0.376083 0.017913 0.525536 F F F
0.126286 0.516553 0.277281 F F F
0.126053 0.017864 0.775497 F F F
0.376074 0.017951 0.025453 F F F
0.626026 0.018074 0.275501 F F F
0.876055 0.018007 0.525467 F F F
0.126367 0.517785 0.775133 F F F
0.376067 0.517845 0.025374 F F F
0.877166 0.518469 0.525661 F F F
0.626020 0.017963 0.775475 F F F
0.876054 0.017884 0.025480 F F F
0.625659 0.517723 0.774546 F F F
0.876069 0.517987 0.025539 F F F
0.025383 0.982069 0.126181 F F F
0.275340 0.982100 0.376217 F F F
0.025558 0.482192 0.126426 F F F
0.025409 0.982074 0.626033 F F F
0.275411 0.981893 0.876044 F F F
0.525380 0.982017 0.126181 F F F
0.775358 0.982078 0.376187 F F F
0.025870 0.481957 0.625774 F F F
0.275660 0.482106 0.875537 F F F
0.525395 0.482348 0.126360 F F F
0.775589 0.481455 0.376577 F F F
0.525411 0.982033 0.626008 F F F
0.775426 0.981980 0.876070 F F F
0.775295 0.482135 0.876041 F F F
0.385215 0.373539 0.349582 F F F
0.636913 0.374614 0.607484 F F F
0.603301 0.627597 0.385784 F F F
0.353133 0.629731 0.639506 F F F
0.398417 0.366723 0.620847 F F F
0.647804 0.372454 0.360844 F F F
0.613842 0.625370 0.646255 F F F
0.363972 0.632262 0.382492 F F F
0.250013 0.249258 0.249770 F F F
0.499851 0.250095 0.499795 F F F
0.500011 0.249639 0.249765 F F F
0.250229 0.250273 0.500224 F F F
0.500196 0.499883 0.249682 F F F
0.245027 0.499132 0.499269 F F F
0.249696 0.499401 0.249613 F F F
0.507569 0.497019 0.496606 F F F
0.484310 0.624621 0.730034 F F F
0.734480 0.624049 0.479931 F F F
0.731553 0.375056 0.735742 F F F
0.471826 0.376309 0.485234 F F F
0.264565 0.625320 0.261464 F F F
0.516179 0.375339 0.269283 F F F
0.268905 0.376774 0.523566 F F F
0.373752 0.483810 0.720236 F F F
0.622908 0.479194 0.473245 F F F
0.471383 0.518155 0.374598 F F F
0.724587 0.518045 0.623413 F F F
0.525865 0.267440 0.626072 F F F
0.275298 0.268176 0.376358 F F F
0.625907 0.732319 0.275197 F F F
0.376254 0.730436 0.523725 F F F
0.373890 0.263745 0.728310 F F F
0.623419 0.271217 0.475434 F F F
0.477095 0.734847 0.374002 F F F
0.724515 0.731874 0.623840 F F F
0.625774 0.518079 0.277003 F F F
0.521486 0.481276 0.623630 F F F
0.278032 0.482659 0.377581 F F F
0.515704 0.622846 0.515490 T T T