Cs8 Pb8 Br23
1.0
8.456489 0.000000 8.040301
0.000000 11.729847 0.000000
-8.456489 0.000000 8.040301
Cs Pb Br
8 8 23
direct
0.271704 0.249639 0.181749 Cs
0.771275 0.255156 0.759945 Cs
0.706479 0.748952 0.248821 Cs
0.212942 0.745635 0.784842 Cs
0.268195 0.257392 0.751269 Cs
0.805490 0.249743 0.215368 Cs
0.722374 0.749532 0.777083 Cs
0.245702 0.740983 0.289382 Cs
0.006241 -0.005341 -0.000534 Pb
0.491244 0.040464 0.493633 Pb
0.505098 0.002013 -0.005619 Pb
0.031492 -0.005820 0.503705 Pb
0.505598 0.499650 -0.004822 Pb
0.001441 0.495394 0.500822 Pb
0.005231 0.503840 0.000997 Pb
0.491600 0.482721 0.495531 Pb
0.483991 0.751161 0.973025 Br
0.966305 0.754093 0.455268 Br
1.001300 0.249426 0.973827 Br
0.373958 0.244481 0.472337 Br
0.036316 0.749575 0.044530 Br
0.549583 0.729799 0.507494 Br
0.539244 0.250282 0.023685 Br
0.011535 0.247550 0.551188 Br
0.253027 0.482226 0.955085 Br
0.461133 0.518274 0.243869 Br
0.949072 0.536127 0.747584 Br
0.549352 0.034807 0.744308 Br
0.055714 0.036392 0.258972 Br
0.758495 0.977793 0.045270 Br
0.271227 0.939892 0.547682 Br
0.253626 0.020777 0.946559 Br
0.461609 0.976954 0.247590 Br
0.955874 0.958871 0.749673 Br
0.758113 0.521974 0.045720 Br
0.236090 0.537628 0.553672 Br
0.541882 0.466943 0.747054 Br
0.053707 0.460874 0.254485 Br
0.688967 0.296303 0.468662 Br
