Cs4 Pb4 Br12                            
   1.0000000000000000     
     8.5884179498362574    0.0000000000000000    0.0000000000000000
     0.0000000000000000   11.9990839403324063    0.0000000000000000
     0.0000000000000000    0.0000000000000000    7.8274888672101026
   Cs   Pb   Br
     4     4    12
Direct
  0.0710465916142198  0.2500000000000000  0.4726817852371852
  0.4289534083857802  0.7500000000000000  0.9726817852371852
  0.5710465916142198  0.2500000000000000  0.0273182147628148
  0.9289534083857802  0.7500000000000000  0.5273182147628148
  0.0000000000000000  0.0000000000000000  0.0000000000000000
  0.5000000000000000  0.0000000000000000  0.5000000000000000
  0.5000000000000000  0.5000000000000000  0.5000000000000000
  0.0000000000000000  0.5000000000000000  0.0000000000000000
  0.5053921460078428  0.7500000000000000  0.4445439418875594
  0.9946078539921572  0.2500000000000000  0.9445439418875594
  0.0053921460078428  0.7500000000000000  0.0554560581124406
  0.4946078539921572  0.2500000000000000  0.5554560581124406
  0.3029005871872599  0.4673093340661509  0.1875135587726149
  0.1970994128127401  0.5326906659338491  0.6875135587726149
  0.8029005871872599  0.0326906659338491  0.3124864412273851
  0.6970994128127401  0.9673093340661509  0.8124864412273851
  0.3029005871872599  0.0326906659338491  0.1875135587726149
  0.1970994128127401  0.9673093340661509  0.6875135587726149
  0.6970994128127401  0.5326906659338491  0.8124864412273851
  0.8029005871872599  0.4673093340661509  0.3124864412273851

  0.00000000E+00  0.00000000E+00  0.00000000E+00
  0.00000000E+00  0.00000000E+00  0.00000000E+00
  0.00000000E+00  0.00000000E+00  0.00000000E+00
  0.00000000E+00  0.00000000E+00  0.00000000E+00
  0.00000000E+00  0.00000000E+00  0.00000000E+00
  0.00000000E+00  0.00000000E+00  0.00000000E+00
  0.00000000E+00  0.00000000E+00  0.00000000E+00
  0.00000000E+00  0.00000000E+00  0.00000000E+00
  0.00000000E+00  0.00000000E+00  0.00000000E+00
  0.00000000E+00  0.00000000E+00  0.00000000E+00
  0.00000000E+00  0.00000000E+00  0.00000000E+00
  0.00000000E+00  0.00000000E+00  0.00000000E+00
  0.00000000E+00  0.00000000E+00  0.00000000E+00
  0.00000000E+00  0.00000000E+00  0.00000000E+00
  0.00000000E+00  0.00000000E+00  0.00000000E+00
  0.00000000E+00  0.00000000E+00  0.00000000E+00
  0.00000000E+00  0.00000000E+00  0.00000000E+00
  0.00000000E+00  0.00000000E+00  0.00000000E+00
  0.00000000E+00  0.00000000E+00  0.00000000E+00
  0.00000000E+00  0.00000000E+00  0.00000000E+00
