Cs4 Pb4 Br12
1.0
8.435886 0.000000 0.000000
0.000000 11.745795 0.000000
-0.000000 0.000000 8.068433
Cs Pb Br
4 4 12
direct
0.064561 0.250000 0.479170 Cs
0.435439 0.750000 0.979170 Cs
0.564561 0.250000 0.020830 Cs
0.935439 0.750000 0.520830 Cs
0.000000 0.000000 0.000000 Pb
0.500000 0.000000 0.500000 Pb
0.500000 0.500000 0.500000 Pb
0.000000 0.500000 0.000000 Pb
0.507631 0.750000 0.430141 Br
0.992369 0.250000 0.930141 Br
0.007631 0.750000 0.069859 Br
0.492369 0.250000 0.569859 Br
0.297789 0.464636 0.198278 Br
0.202211 0.535364 0.698278 Br
0.797789 0.035364 0.301722 Br
0.702211 0.964636 0.801722 Br
0.297789 0.035364 0.198278 Br
0.202211 0.964636 0.698278 Br
0.702211 0.535364 0.801722 Br
0.797789 0.464636 0.301722 Br
