Cs4 Pb4 Br12                            
   1.0000000000000000     
    -5.9446957299680188   -5.9446957299680170    0.0000000000000000
    -5.7398882231089763    5.7398882231089763    0.0000000000000000
     0.0000000000000000    0.0000000000000000  -11.7423893245042912
   Cs   Pb   Br
     4     4    12
Direct
  0.5612741447216152  0.0182388587345059  0.7500000000000000
  0.4387258552783848  0.9817611412654941  0.2500000000000000
  0.0612741447216152  0.4817611412654941  0.7500000000000000
  0.9387258552783848  0.5182388587345059  0.2500000000000000
  0.0000000000000000  0.0000000000000000  0.0000000000000000
  0.0000000000000000  0.0000000000000000  0.5000000000000000
  0.5000000000000000  0.5000000000000000  0.0000000000000000
  0.5000000000000000  0.5000000000000000  0.5000000000000000
  0.7959041536217697  0.2988654156249950  0.9631236941970371
  0.7959041536217697  0.2988654156249950  0.5368763058029629
  0.2040958463782374  0.7011345843750050  0.0368763058029629
  0.2040958463782374  0.7011345843750050  0.4631236941970371
  0.9934192977543503  0.9302859727480381  0.7500000000000000
  0.0065807022456497  0.0697140272519619  0.2500000000000000
  0.4934192977543503  0.5697140272519619  0.7500000000000000
  0.5065807022456497  0.4302859727480453  0.2500000000000000
  0.7040958463782303  0.7988654156249950  0.0368763058029629
  0.7040958463782303  0.7988654156249950  0.4631236941970371
  0.2959041536217626  0.2011345843750050  0.9631236941970371
  0.2959041536217626  0.2011345843750050  0.5368763058029629

  0.00000000E+00  0.00000000E+00  0.00000000E+00
  0.00000000E+00  0.00000000E+00  0.00000000E+00
  0.00000000E+00  0.00000000E+00  0.00000000E+00
  0.00000000E+00  0.00000000E+00  0.00000000E+00
  0.00000000E+00  0.00000000E+00  0.00000000E+00
  0.00000000E+00  0.00000000E+00  0.00000000E+00
  0.00000000E+00  0.00000000E+00  0.00000000E+00
  0.00000000E+00  0.00000000E+00  0.00000000E+00
  0.00000000E+00  0.00000000E+00  0.00000000E+00
  0.00000000E+00  0.00000000E+00  0.00000000E+00
  0.00000000E+00  0.00000000E+00  0.00000000E+00
  0.00000000E+00  0.00000000E+00  0.00000000E+00
  0.00000000E+00  0.00000000E+00  0.00000000E+00
  0.00000000E+00  0.00000000E+00  0.00000000E+00
  0.00000000E+00  0.00000000E+00  0.00000000E+00
  0.00000000E+00  0.00000000E+00  0.00000000E+00
  0.00000000E+00  0.00000000E+00  0.00000000E+00
  0.00000000E+00  0.00000000E+00  0.00000000E+00
  0.00000000E+00  0.00000000E+00  0.00000000E+00
  0.00000000E+00  0.00000000E+00  0.00000000E+00
