Cs4 Pb4 Br12                            
   1.0000000000000000     
    -5.9446957299680188   -5.9446957299680170    0.0000000000000000
    -5.7398882231089763    5.7398882231089763    0.0000000000000000
     0.0000000000000000    0.0000000000000000  -11.7423893245042912
   Cs   Pb   Br
     4     4    12
Direct
  0.5612741447216160  0.0182388587345058  0.7500000000000000
  0.4387258552783841  0.9817611412654941  0.2500000000000000
  0.0612741447216159  0.4817611412654942  0.7500000000000000
  0.9387258552783840  0.5182388587345059  0.2500000000000000
 -0.0000000000000000  0.0000000000000000 -0.0000000000000000
 -0.0000000000000000  0.0000000000000000  0.5000000000000000
  0.5000000000000000  0.5000000000000000 -0.0000000000000000
  0.5000000000000000  0.5000000000000000  0.5000000000000000
  0.7959041536217673  0.2988654156249956  0.9631236941970343
  0.7959041536217673  0.2988654156249956  0.5368763058029657
  0.2040958463782398  0.7011345843750045  0.0368763058029657
  0.2040958463782398  0.7011345843750045  0.4631236941970343
  0.9934192977543496  0.9302859727480406  0.7500000000000000
  0.0065807022456505  0.0697140272519594  0.2500000000000000
  0.4934192977543495  0.5697140272519594  0.7500000000000000
  0.5065807022456504  0.4302859727480478  0.2500000000000000
  0.7040958463782327  0.7988654156249955  0.0368763058029657
  0.7040958463782327  0.7988654156249955  0.4631236941970343
  0.2959041536217602  0.2011345843750044  0.9631236941970343
  0.2959041536217602  0.2011345843750044  0.5368763058029657

  0.00000000E+00  0.00000000E+00  0.00000000E+00
  0.00000000E+00  0.00000000E+00  0.00000000E+00
  0.00000000E+00  0.00000000E+00  0.00000000E+00
  0.00000000E+00  0.00000000E+00  0.00000000E+00
  0.00000000E+00  0.00000000E+00  0.00000000E+00
  0.00000000E+00  0.00000000E+00  0.00000000E+00
  0.00000000E+00  0.00000000E+00  0.00000000E+00
  0.00000000E+00  0.00000000E+00  0.00000000E+00
  0.00000000E+00  0.00000000E+00  0.00000000E+00
  0.00000000E+00  0.00000000E+00  0.00000000E+00
  0.00000000E+00  0.00000000E+00  0.00000000E+00
  0.00000000E+00  0.00000000E+00  0.00000000E+00
  0.00000000E+00  0.00000000E+00  0.00000000E+00
  0.00000000E+00  0.00000000E+00  0.00000000E+00
  0.00000000E+00  0.00000000E+00  0.00000000E+00
  0.00000000E+00  0.00000000E+00  0.00000000E+00
  0.00000000E+00  0.00000000E+00  0.00000000E+00
  0.00000000E+00  0.00000000E+00  0.00000000E+00
  0.00000000E+00  0.00000000E+00  0.00000000E+00
  0.00000000E+00  0.00000000E+00  0.00000000E+00
