Cs7 Pb8 Br24                            
   1.0000000000000000     
     8.4200180000000007    0.0000000000000000    8.0779809999999994
     0.0000000000000000   11.7638079999999992    0.0000000000000000
    -8.4200180000000007    0.0000000000000000    8.0779809999999994
   Cs   Pb   Br   Cs
     6     8    24     1
Direct
  0.2704430000000002  0.2500009999999975  0.2001569999999973
  0.7746860000000027  0.2500009999999975  0.7162720000000036
  0.2078530000000001  0.7500000000000000  0.7659459999999996
  0.2924879999999987  0.2499990000000025  0.7334049999999976
  0.7909829999999971  0.2499990000000025  0.2242660000000001
  0.2403180000000020  0.7500009999999975  0.2864509999999996
  0.9977609999999970  0.9962739999999997  0.9986099999999993
  0.5009489999999985  0.0017309999999995  0.4977769999999992
  0.5044249999999977  0.9968649999999997  0.9979790000000008
  0.0014380000000003  0.0009050000000030  0.5003859999999989
  0.5044249999999977  0.5031350000000003  0.9979820000000004
  0.0014340000000033  0.4990930000000020  0.5003919999999979
  0.9977659999999986  0.5037189999999967  0.9986069999999998
  0.5009510000000006  0.4982759999999971  0.4977749999999972
  0.4583259999999996  0.7500029999999995  0.9669749999999979
  0.9911329999999978  0.7499979999999979  0.4637510000000020
  0.9707760000000007  0.2499979999999979  0.9703710000000001
  0.4517519999999990  0.2500009999999975  0.4664420000000007
  0.0488009999999974  0.7499990000000025  0.0319069999999968
  0.5105089999999990  0.7500020000000021  0.5257920000000027
  0.5300110000000018  0.2500009999999975  0.0322960000000023
  0.0321640000000016  0.2499990000000025  0.5440060000000031
  0.2484609999999989  0.4669219999999967  0.9499750000000020
  0.7485119999999981  0.4513630000000006  0.4559259999999981
  0.4440540000000013  0.5221519999999984  0.2461169999999981
  0.9482240000000033  0.5370840000000001  0.7467279999999974
  0.5452230000000000  0.0446269999999984  0.7494930000000011
  0.0516580000000033  0.0371379999999988  0.2513470000000027
  0.7532879999999977  0.9716999999999985  0.0594180000000009
  0.2517429999999976  0.9740269999999995  0.5547010000000014
  0.2484609999999989  0.0330799999999982  0.9499739999999974
  0.7485130000000026  0.0486379999999969  0.4559250000000006
  0.4440529999999967  0.9778489999999991  0.2461169999999981
  0.9482250000000008  0.9629139999999978  0.7467269999999999
  0.7532890000000023  0.5283009999999990  0.0594180000000009
  0.2517440000000022  0.5259730000000005  0.5546999999999969
  0.5452220000000025  0.4553749999999965  0.7494939999999986
  0.0516549999999967  0.4628590000000017  0.2513470000000027
  0.7200569999999971  0.7500000000000000  0.1185059999999964

  0.00000000E+00  0.00000000E+00  0.00000000E+00
  0.00000000E+00  0.00000000E+00  0.00000000E+00
  0.00000000E+00  0.00000000E+00  0.00000000E+00
  0.00000000E+00  0.00000000E+00  0.00000000E+00
  0.00000000E+00  0.00000000E+00  0.00000000E+00
  0.00000000E+00  0.00000000E+00  0.00000000E+00
  0.00000000E+00  0.00000000E+00  0.00000000E+00
  0.00000000E+00  0.00000000E+00  0.00000000E+00
  0.00000000E+00  0.00000000E+00  0.00000000E+00
  0.00000000E+00  0.00000000E+00  0.00000000E+00
  0.00000000E+00  0.00000000E+00  0.00000000E+00
  0.00000000E+00  0.00000000E+00  0.00000000E+00
  0.00000000E+00  0.00000000E+00  0.00000000E+00
  0.00000000E+00  0.00000000E+00  0.00000000E+00
  0.00000000E+00  0.00000000E+00  0.00000000E+00
  0.00000000E+00  0.00000000E+00  0.00000000E+00
  0.00000000E+00  0.00000000E+00  0.00000000E+00
  0.00000000E+00  0.00000000E+00  0.00000000E+00
  0.00000000E+00  0.00000000E+00  0.00000000E+00
  0.00000000E+00  0.00000000E+00  0.00000000E+00
  0.00000000E+00  0.00000000E+00  0.00000000E+00
  0.00000000E+00  0.00000000E+00  0.00000000E+00
  0.00000000E+00  0.00000000E+00  0.00000000E+00
  0.00000000E+00  0.00000000E+00  0.00000000E+00
  0.00000000E+00  0.00000000E+00  0.00000000E+00
  0.00000000E+00  0.00000000E+00  0.00000000E+00
  0.00000000E+00  0.00000000E+00  0.00000000E+00
  0.00000000E+00  0.00000000E+00  0.00000000E+00
  0.00000000E+00  0.00000000E+00  0.00000000E+00
  0.00000000E+00  0.00000000E+00  0.00000000E+00
  0.00000000E+00  0.00000000E+00  0.00000000E+00
  0.00000000E+00  0.00000000E+00  0.00000000E+00
  0.00000000E+00  0.00000000E+00  0.00000000E+00
  0.00000000E+00  0.00000000E+00  0.00000000E+00
  0.00000000E+00  0.00000000E+00  0.00000000E+00
  0.00000000E+00  0.00000000E+00  0.00000000E+00
  0.00000000E+00  0.00000000E+00  0.00000000E+00
  0.00000000E+00  0.00000000E+00  0.00000000E+00
  0.00000000E+00  0.00000000E+00  0.00000000E+00
