Cs7 Pb8 Br24
1.0
8.420018 0.000000 8.077981
0.000000 11.763808 0.000000
-8.420018 0.000000 8.077981
Cs Pb Br Cs
6 8 24 1
direct
0.270443 0.250001 0.200157 Cs
0.774686 0.250001 0.716272 Cs
0.207853 0.750000 0.765946 Cs
0.292488 0.249999 0.733405 Cs
0.790983 0.249999 0.224266 Cs
0.240318 0.750001 0.286451 Cs
-0.002239 -0.003726 -0.001390 Pb
0.500949 0.001731 0.497777 Pb
0.504425 -0.003135 -0.002021 Pb
0.001438 0.000905 0.500386 Pb
0.504425 0.503135 -0.002018 Pb
0.001434 0.499093 0.500392 Pb
-0.002234 0.503719 -0.001393 Pb
0.500951 0.498276 0.497775 Pb
0.458326 0.750003 0.966975 Br
0.991133 0.749998 0.463751 Br
0.970776 0.249998 0.970371 Br
0.451752 0.250001 0.466442 Br
0.048801 0.749999 0.031907 Br
0.510509 0.750002 0.525792 Br
0.530011 0.250001 0.032296 Br
0.032164 0.249999 0.544006 Br
0.248461 0.466922 0.949975 Br
0.748512 0.451363 0.455926 Br
0.444054 0.522152 0.246117 Br
0.948224 0.537084 0.746728 Br
0.545223 0.044627 0.749493 Br
0.051658 0.037138 0.251347 Br
0.753288 0.971700 0.059418 Br
0.251743 0.974027 0.554701 Br
0.248461 0.033080 0.949974 Br
0.748513 0.048638 0.455925 Br
0.444053 0.977849 0.246117 Br
0.948225 0.962914 0.746727 Br
0.753289 0.528301 0.059418 Br
0.251744 0.525973 0.554700 Br
0.545222 0.455375 0.749494 Br
0.051655 0.462859 0.251347 Br
0.720057 0.750000 1.118506 Cs
