Cs8 Pb8 Br23                            
   1.0000000000000000     
     8.4564889999999995    0.0000000000000000    8.0403009999999995
     0.0000000000000000   11.7298469999999995    0.0000000000000000
    -8.4564889999999995    0.0000000000000000    8.0403009999999995
   Cs   Pb   Br
     8     8    23
Direct
  0.2534339999999986  0.2378730000000004  0.1946629999999985
  0.7742709999999988  0.2442739999999972  0.7173620000000014
  0.7641410000000022  0.7618360000000024  0.2592470000000020
  0.1976239999999976  0.7501189999999980  0.7719609999999975
  0.2991150000000005  0.2512860000000003  0.7327609999999964
  0.7849539999999990  0.2452309999999969  0.2273589999999999
  0.7355269999999976  0.7518460000000005  0.8055650000000014
  0.2162409999999966  0.7540610000000001  0.2869689999999991
  0.9982520000000008  0.0008029999999977  0.9978380000000016
  0.4995639999999995  0.0023610000000005  0.4875070000000008
  0.4943880000000007  0.0011920000000032  0.9941030000000026
  0.0049300000000017  0.0003770000000003  0.5053580000000011
  0.5008630000000025  0.5059320000000014  0.0033590000000032
  0.0059809999999985  0.4937299999999993  0.5038460000000029
  0.9999060000000028  0.4979730000000018  0.0019390000000001
  0.5058719999999965  0.4882289999999969  0.5065859999999986
  0.4664780000000022  0.7521059999999977  0.9535950000000000
  0.9798910000000021  0.7467990000000029  0.4881829999999994
  0.9666429999999977  0.2501069999999999  0.9769360000000020
  0.4571150000000017  0.2419579999999968  0.4549170000000018
  0.0184629999999970  0.7494730000000018  0.0297559999999990
  0.5191480000000013  0.2547679999999986  0.0332080000000019
  0.0373810000000034  0.2474879999999970  0.5488119999999981
  0.2477459999999994  0.4708260000000024  0.9540959999999998
  0.7519020000000012  0.4538280000000015  0.4589519999999965
  0.8454869999999985  0.5301449999999974  0.8529910000000029
  0.5467110000000019  0.0314819999999969  0.7405820000000034
  0.0371979999999965  0.0246489999999966  0.2546350000000004
  0.7477620000000016  0.9768520000000009  0.0405429999999996
  0.2556039999999982  0.9597979999999993  0.5474329999999981
  0.2430889999999977  0.0302450000000007  0.9394599999999969
  0.7474479999999986  0.0289950000000019  0.4492029999999971
  0.4371989999999997  0.9737149999999986  0.2378730000000004
  0.9437160000000020  0.9686560000000028  0.7499329999999986
  0.7510690000000011  0.5293160000000015  0.0563450000000003
  0.2595110000000034  0.5326390000000032  0.5538650000000018
  0.5538749999999979  0.4761620000000022  0.7658759999999987
  0.0511079999999993  0.4690349999999981  0.2568369999999973
  0.5512870000000021  0.6618070000000031  0.4084599999999980

  0.00000000E+00  0.00000000E+00  0.00000000E+00
  0.00000000E+00  0.00000000E+00  0.00000000E+00
  0.00000000E+00  0.00000000E+00  0.00000000E+00
  0.00000000E+00  0.00000000E+00  0.00000000E+00
  0.00000000E+00  0.00000000E+00  0.00000000E+00
  0.00000000E+00  0.00000000E+00  0.00000000E+00
  0.00000000E+00  0.00000000E+00  0.00000000E+00
  0.00000000E+00  0.00000000E+00  0.00000000E+00
  0.00000000E+00  0.00000000E+00  0.00000000E+00
  0.00000000E+00  0.00000000E+00  0.00000000E+00
  0.00000000E+00  0.00000000E+00  0.00000000E+00
  0.00000000E+00  0.00000000E+00  0.00000000E+00
  0.00000000E+00  0.00000000E+00  0.00000000E+00
  0.00000000E+00  0.00000000E+00  0.00000000E+00
  0.00000000E+00  0.00000000E+00  0.00000000E+00
  0.00000000E+00  0.00000000E+00  0.00000000E+00
  0.00000000E+00  0.00000000E+00  0.00000000E+00
  0.00000000E+00  0.00000000E+00  0.00000000E+00
  0.00000000E+00  0.00000000E+00  0.00000000E+00
  0.00000000E+00  0.00000000E+00  0.00000000E+00
  0.00000000E+00  0.00000000E+00  0.00000000E+00
  0.00000000E+00  0.00000000E+00  0.00000000E+00
  0.00000000E+00  0.00000000E+00  0.00000000E+00
  0.00000000E+00  0.00000000E+00  0.00000000E+00
  0.00000000E+00  0.00000000E+00  0.00000000E+00
  0.00000000E+00  0.00000000E+00  0.00000000E+00
  0.00000000E+00  0.00000000E+00  0.00000000E+00
  0.00000000E+00  0.00000000E+00  0.00000000E+00
  0.00000000E+00  0.00000000E+00  0.00000000E+00
  0.00000000E+00  0.00000000E+00  0.00000000E+00
  0.00000000E+00  0.00000000E+00  0.00000000E+00
  0.00000000E+00  0.00000000E+00  0.00000000E+00
  0.00000000E+00  0.00000000E+00  0.00000000E+00
  0.00000000E+00  0.00000000E+00  0.00000000E+00
  0.00000000E+00  0.00000000E+00  0.00000000E+00
  0.00000000E+00  0.00000000E+00  0.00000000E+00
  0.00000000E+00  0.00000000E+00  0.00000000E+00
  0.00000000E+00  0.00000000E+00  0.00000000E+00
  0.00000000E+00  0.00000000E+00  0.00000000E+00
