Cs8 Pb8 Br24
1.0
11.735352 0.000000 0.000000
0.000000 11.735352 0.000000
0.000000 0.000000 11.735352
Cs Pb Br
8 8 24
direct
0.250000 0.250000 0.250000 Cs
0.250000 0.250000 0.750000 Cs
0.250000 0.750000 0.250000 Cs
0.250000 0.750000 0.750000 Cs
0.750000 0.250000 0.250000 Cs
0.750000 0.250000 0.750000 Cs
0.750000 0.750000 0.250000 Cs
0.750000 0.750000 0.750000 Cs
0.000000 0.000000 0.000000 Pb
0.000000 0.000000 0.500000 Pb
0.000000 0.500000 0.000000 Pb
0.000000 0.500000 0.500000 Pb
0.500000 0.000000 0.000000 Pb
0.500000 0.000000 0.500000 Pb
0.500000 0.500000 0.000000 Pb
0.500000 0.500000 0.500000 Pb
0.910000 0.250000 0.100000 Br
0.910000 0.250000 0.400000 Br
0.090000 0.750000 0.900000 Br
0.090000 0.750000 0.600000 Br
0.590000 0.250000 0.900000 Br
0.590000 0.250000 0.600000 Br
0.410000 0.750000 0.100000 Br
0.410000 0.750000 0.400000 Br
0.100000 0.900000 0.250000 Br
0.900000 0.100000 0.750000 Br
0.900000 0.600000 0.250000 Br
0.100000 0.400000 0.750000 Br
0.400000 0.100000 0.250000 Br
0.600000 0.900000 0.750000 Br
0.600000 0.400000 0.250000 Br
0.400000 0.600000 0.750000 Br
0.250000 0.090000 0.900000 Br
0.250000 0.090000 0.600000 Br
0.250000 0.410000 0.100000 Br
0.250000 0.410000 0.400000 Br
0.750000 0.910000 0.100000 Br
0.750000 0.910000 0.400000 Br
0.750000 0.590000 0.900000 Br
0.750000 0.590000 0.600000 Br
