Cs Pb Br                                
   1.0000000000000000     
     8.4200180000000007    0.0000000000000000    8.0779809999999994
     0.0000000000000000   11.7638079999999992    0.0000000000000000
    -8.4200180000000007    0.0000000000000000    8.0779809999999994
   Cs   Pb   Br
     8     8    24
Selective dynamics
Direct
  0.2721250000000026  0.2500000000000000  0.2082359999999994   F   F   F
  0.8105593397814772  0.2442625505879761  0.7759811642738583   T   T   T
  0.8745286700949748  0.7323464503609998  0.2983272543784778   T   T   T
  0.2800779306168479  0.7908777324377496  0.7931693996872866   T   T   T
  0.2736521245113295  0.2813446130538253  0.7343315356871898   T   T   T
  0.7874248933633012  0.1952861715377594  0.3225786723084170   T   T   T
  0.7194988754473002  0.7852933975354048  0.8261578130848548   T   T   T
  0.3242881306805572  0.7763038667458204  0.3319902630677802   T   T   T
  0.0056443319290693  0.9722889664115257  0.0269447628708548   T   T   T
  0.5300409455816890  0.0177866918087517  0.5054339153727838   T   T   T
  0.4958648975728934  0.0695433208176865  0.0162432427845616   T   T   T
  0.0461780883273732  0.9588595485338303  0.5323436611521899   T   T   T
  0.5178968757810622  0.5258453487039887  0.0407581712893474   T   T   T
  0.0643778850503338  0.4926059872379298  0.4716430913230525   T   T   T
  0.0105365761613925  0.4844492403491074  0.9826851150299092   T   T   T
  0.5528321258891040  0.5453792865590827  0.5378900785642529   T   T   T
  0.4990109857286100  0.7956439122771570  0.0670436165949297   T   T   T
  0.0801267176419032  0.7217527299432263  0.5575662303799476   T   T   T
  0.9797997294622007  0.2374969975655645  0.0310598936223485   T   T   T
  0.5803634432320735  0.2866481557434426  0.5078569177915924   T   T   T
  0.0697970295386554  0.7389244194979483  0.0444443616509531   T   T   T
  0.5043598914992060  0.7878049684026394  0.6161056169245711   T   T   T
  0.5659843728545866  0.2913641450400561  0.0784292117050853   T   T   T
  0.0470502827073247  0.2238268475561114  0.5130048416414610   T   T   T
  0.2612985096444405  0.4544327210446610  0.9897610127392369   T   T   T
  0.8111102547048858  0.5087005570276730  0.5065109217505324   T   T   T
  0.5796846556140736  0.5922217298778421  0.2915699586017553   T   T   T
  0.0093506421409586  0.4670784267298842  0.7497570979289137   T   T   T
  0.5805842416884204  0.0908827128086074  0.7676083628491099   T   T   T
  0.0796950759633361  0.9826846140506902  0.2700720007653103   T   T   T
  0.7538564459562949  0.0055584560949029  0.0765595255143836   T   T   T
  0.2935845738310832  0.0195068104272806  0.5684194806875595   T   T   T
  0.2515017094498688  0.0731870035689468  0.9571721120439634   T   T   T
  0.7794188257396826  0.9205733169693815  0.5053725607326101   T   T   T
  0.4955266554693623  0.0507463777592321  0.2687631685956902   T   T   T
  0.9613173842839373  0.9786793640294036  0.7672071771988769   T   T   T
  0.7583398513696622  0.5465358179079800  0.9848431883386723   T   T   T
  0.3307426968008471  0.4510711372307270  0.4343749049824481   T   T   T
  0.5058429379230205  0.5188879836502878  0.7825272905207541   T   T   T
  0.9856498207061506  0.4575273658823562  0.2320808950872433   T   T   T

  0.00000000E+00  0.00000000E+00  0.00000000E+00
  0.00000000E+00  0.00000000E+00  0.00000000E+00
  0.00000000E+00  0.00000000E+00  0.00000000E+00
  0.00000000E+00  0.00000000E+00  0.00000000E+00
  0.00000000E+00  0.00000000E+00  0.00000000E+00
  0.00000000E+00  0.00000000E+00  0.00000000E+00
  0.00000000E+00  0.00000000E+00  0.00000000E+00
  0.00000000E+00  0.00000000E+00  0.00000000E+00
  0.00000000E+00  0.00000000E+00  0.00000000E+00
  0.00000000E+00  0.00000000E+00  0.00000000E+00
  0.00000000E+00  0.00000000E+00  0.00000000E+00
  0.00000000E+00  0.00000000E+00  0.00000000E+00
  0.00000000E+00  0.00000000E+00  0.00000000E+00
  0.00000000E+00  0.00000000E+00  0.00000000E+00
  0.00000000E+00  0.00000000E+00  0.00000000E+00
  0.00000000E+00  0.00000000E+00  0.00000000E+00
  0.00000000E+00  0.00000000E+00  0.00000000E+00
  0.00000000E+00  0.00000000E+00  0.00000000E+00
  0.00000000E+00  0.00000000E+00  0.00000000E+00
  0.00000000E+00  0.00000000E+00  0.00000000E+00
  0.00000000E+00  0.00000000E+00  0.00000000E+00
  0.00000000E+00  0.00000000E+00  0.00000000E+00
  0.00000000E+00  0.00000000E+00  0.00000000E+00
  0.00000000E+00  0.00000000E+00  0.00000000E+00
  0.00000000E+00  0.00000000E+00  0.00000000E+00
  0.00000000E+00  0.00000000E+00  0.00000000E+00
  0.00000000E+00  0.00000000E+00  0.00000000E+00
  0.00000000E+00  0.00000000E+00  0.00000000E+00
  0.00000000E+00  0.00000000E+00  0.00000000E+00
  0.00000000E+00  0.00000000E+00  0.00000000E+00
  0.00000000E+00  0.00000000E+00  0.00000000E+00
  0.00000000E+00  0.00000000E+00  0.00000000E+00
  0.00000000E+00  0.00000000E+00  0.00000000E+00
  0.00000000E+00  0.00000000E+00  0.00000000E+00
  0.00000000E+00  0.00000000E+00  0.00000000E+00
  0.00000000E+00  0.00000000E+00  0.00000000E+00
  0.00000000E+00  0.00000000E+00  0.00000000E+00
  0.00000000E+00  0.00000000E+00  0.00000000E+00
  0.00000000E+00  0.00000000E+00  0.00000000E+00
  0.00000000E+00  0.00000000E+00  0.00000000E+00
