Cs Pb Br 
 1.0000000000000000
     8.4200180000000007    0.0000000000000000    8.0779809999999994
     0.0000000000000000   11.7638079999999992    0.0000000000000000
    -8.4200180000000007    0.0000000000000000    8.0779809999999994
 Cs  Pb  Br 
   8   8  24
Selective dynamics
Cartesian
  0.5379465300020001  2.9409519999999998  3.8803470311410000   F   F   F
  0.2911488601813145  2.8734577467072144 12.8160440474894450   T   T   T
  4.8516262919584108  8.6151830315283515  9.4743078736339665   T   T   T
 -4.3202394052195476  9.3037337958730806  8.6696715424975253   T   T   T
 -3.8789289343301467  3.3096840097994744  8.1424728553940682   T   T   T
  3.9140135485141223  2.2973090270252485  8.9665877134284084   T   T   T
 -0.8980701747691242  9.2380407522741841 12.4857853624856645   T   T   T
 -0.0648520933387579  9.1322896380554575  5.3014043954095857   T   T   T
 -0.1793500119376090 -0.3259872786163390  0.2632540886009783   T   T   T
  0.2071916372855168  0.2092392273932948  8.3645462527678447   T   T   T
 -4.3815950334924905  0.8180942737817014 12.2147808277528362   T   T   T
 -4.0935228741652985 -0.4839683720813312  4.6732877003826774   T   T   T
 -4.4025015196830930  6.1859437198467715 12.5907858557888730   T   T   T
 -3.4291803675899959  5.7949222535174503  4.3299672627456411   T   T   T
  0.2345098040533423  5.6989678492127247 -0.0547550497687933   T   T   T
  0.1258123074321112  6.4157372142580380  8.8108332438523576   T   T   T
 -4.7828449764817611  9.3598022203973539 12.6505593225321444   T   T   T
  4.3999687088344475  8.4905605385279639 13.2292525179545191   T   T   T
 -0.4316115049113826  2.7938690799377492 16.2436858289441126   T   T   T
  0.6105062493263322  3.3720738677199886  8.7906234001622998   T   T   T
  0.2134699199624697  8.6925649974853467  0.9228397874431975   T   T   T
 -0.9409010195046243  9.2675863897347419  9.0510990882025641   T   T   T
  4.1052232328717482  3.4275518603353610  5.2055606922149185   T   T   T
 -3.9233457734075370  2.6330560598954031  4.5241146534421182   T   T   T
 -6.1336673883832633  5.3458592792869712 10.1060350516843869   T   T   T
  2.5647318662636240  5.9842556823665722 10.6437188286045163   T   T   T
  2.4259309349082638  6.9667827237107796  7.0379782197977718   T   T   T
  2.1857823149492188  5.4946209329924249 14.2100389012373594   T   T   T
 -1.5747464666071891  1.0691267839995870 10.8906742437946544   T   T   T
 -1.6029771336172665 -0.2036948757535950  2.8254118002395128   T   T   T
  5.7028522614654555 11.8291966102768971  6.7080844396366786   T   T   T
 -2.3141148627598449 11.9932823725588911  6.9632523743245516   T   T   T
 -5.9417574919095015  0.8609578580803864  9.7636441652245569   T   T   T
  2.3074744841922872 -0.9343602492490427 10.3785204088868532   T   T   T
  1.9093526412191015 12.3607786446551096  6.1739186772907990   T   T   T
  1.6344114376399561 11.5129961320040266 13.9629885656914912   T   T   T
  6.5128558256608633  6.4293424269924593  6.0034184742861711   T   T   T
 -0.8725850582688635  5.3063142527239195  6.1806054499710363   T   T   T
 -2.3296872291912250  6.1040986131690849 10.4074302263344816   T   T   T
 -2.0749540820481074  5.3822640869858249  1.7588245852954345   T   T   T
