Cs8 Pb8 Br23                            
   1.0000000000000000     
     8.4564889999999995    0.0000000000000000    8.0403009999999995
     0.0000000000000000   11.7298469999999995    0.0000000000000000
    -8.4564889999999995    0.0000000000000000    8.0403009999999995
   Cs   Pb   Br
     8     8    23
Direct
  0.2658750000000012  0.2381019999999978  0.1965780000000024
  0.7742659999999972  0.2305130000000020  0.7391140000000007
  0.7088710000000020  0.7750959999999978  0.2610719999999986
  0.2234320000000025  0.7517489999999967  0.7776369999999986
  0.2623970000000000  0.2448669999999993  0.7294499999999999
  0.8071270000000013  0.2484499999999983  0.2279339999999976
  0.7285540000000026  0.7558760000000007  0.7869090000000014
  0.2226349999999968  0.7576210000000003  0.2979569999999967
  0.0059109999999976  0.9949250000000021  0.0002589999999998
  0.4931100000000015  0.0042449999999974  0.4995159999999998
  0.5007540000000006  0.9996519999999975  0.0005260000000007
  0.9943150000000003  0.0000829999999965  0.5004309999999990
  0.5179660000000013  0.4943359999999970  0.0017769999999970
  0.9916460000000029  0.5036490000000029  0.4944580000000016
  0.0111890000000017  0.5010740000000027  0.9960019999999972
  0.4864760000000032  0.4972840000000005  0.5140799999999999
  0.4822640000000007  0.7459780000000009  0.9801580000000030
  0.9565320000000028  0.7510249999999985  0.4597139999999982
  0.9887090000000001  0.2483590000000007  0.9737799999999979
  0.4357150000000019  0.2536449999999988  0.4748790000000014
  0.0494419999999991  0.7479769999999988  0.0304659999999970
  0.5242319999999978  0.7482729999999975  0.5217489999999998
  0.5405659999999983  0.2488159999999979  0.0448340000000016
  0.0057040000000015  0.2536220000000000  0.5323319999999967
  0.2644739999999999  0.4673269999999974  0.9535589999999985
  0.9460920000000002  0.5305370000000025  0.7402900000000017
  0.5397889999999990  0.0298060000000007  0.7526220000000023
  0.0484999999999971  0.0283450000000016  0.2533600000000007
  0.7573390000000018  0.9781789999999972  0.0369979999999970
  0.2455009999999973  0.9640649999999980  0.5509350000000026
  0.2529249999999976  0.0290019999999984  0.9471569999999971
  0.7406640000000024  0.0412600000000012  0.4538149999999987
  0.4435980000000015  0.9691100000000006  0.2481610000000032
  0.9552979999999991  0.9631260000000026  0.7483000000000004
  0.7659909999999996  0.5407980000000023  0.0445869999999999
  0.2312299999999965  0.5370220000000003  0.5463980000000035
  0.5615519999999989  0.4648370000000028  0.7603429999999989
  0.0603150000000028  0.4681560000000005  0.2484499999999983
  0.6286070000000024  0.4885459999999995  0.3371119999999976

  0.00000000E+00  0.00000000E+00  0.00000000E+00
  0.00000000E+00  0.00000000E+00  0.00000000E+00
  0.00000000E+00  0.00000000E+00  0.00000000E+00
  0.00000000E+00  0.00000000E+00  0.00000000E+00
  0.00000000E+00  0.00000000E+00  0.00000000E+00
  0.00000000E+00  0.00000000E+00  0.00000000E+00
  0.00000000E+00  0.00000000E+00  0.00000000E+00
  0.00000000E+00  0.00000000E+00  0.00000000E+00
  0.00000000E+00  0.00000000E+00  0.00000000E+00
  0.00000000E+00  0.00000000E+00  0.00000000E+00
  0.00000000E+00  0.00000000E+00  0.00000000E+00
  0.00000000E+00  0.00000000E+00  0.00000000E+00
  0.00000000E+00  0.00000000E+00  0.00000000E+00
  0.00000000E+00  0.00000000E+00  0.00000000E+00
  0.00000000E+00  0.00000000E+00  0.00000000E+00
  0.00000000E+00  0.00000000E+00  0.00000000E+00
  0.00000000E+00  0.00000000E+00  0.00000000E+00
  0.00000000E+00  0.00000000E+00  0.00000000E+00
  0.00000000E+00  0.00000000E+00  0.00000000E+00
  0.00000000E+00  0.00000000E+00  0.00000000E+00
  0.00000000E+00  0.00000000E+00  0.00000000E+00
  0.00000000E+00  0.00000000E+00  0.00000000E+00
  0.00000000E+00  0.00000000E+00  0.00000000E+00
  0.00000000E+00  0.00000000E+00  0.00000000E+00
  0.00000000E+00  0.00000000E+00  0.00000000E+00
  0.00000000E+00  0.00000000E+00  0.00000000E+00
  0.00000000E+00  0.00000000E+00  0.00000000E+00
  0.00000000E+00  0.00000000E+00  0.00000000E+00
  0.00000000E+00  0.00000000E+00  0.00000000E+00
  0.00000000E+00  0.00000000E+00  0.00000000E+00
  0.00000000E+00  0.00000000E+00  0.00000000E+00
  0.00000000E+00  0.00000000E+00  0.00000000E+00
  0.00000000E+00  0.00000000E+00  0.00000000E+00
  0.00000000E+00  0.00000000E+00  0.00000000E+00
  0.00000000E+00  0.00000000E+00  0.00000000E+00
  0.00000000E+00  0.00000000E+00  0.00000000E+00
  0.00000000E+00  0.00000000E+00  0.00000000E+00
  0.00000000E+00  0.00000000E+00  0.00000000E+00
  0.00000000E+00  0.00000000E+00  0.00000000E+00
