Cs8 Pb7 Br24
1.0
8.420018 0.000000 8.077981
0.000000 11.763808 0.000000
-8.420018 0.000000 8.077981
Cs Pb Br Pb
8 6 24 1
direct
0.265510 0.262461 0.222500 Cs
0.777680 0.267173 0.692821 Cs
0.719773 0.739712 0.291978 Cs
0.199861 0.728582 0.747504 Cs
0.280228 0.260290 0.708013 Cs
0.800128 0.271426 0.252496 Cs
0.734486 0.737540 0.777502 Cs
0.222324 0.732825 0.307175 Cs
-0.000002 0.000004 -0.000002 Pb
0.500004 -0.000005 0.499999 Pb
0.499999 -0.000002 -0.000002 Pb
-0.000001 -0.000001 0.499998 Pb
0.500005 0.499999 0.000001 Pb
-0.000004 0.499998 0.000048 Pb
0.464616 0.750965 0.943362 Br
0.974464 0.752021 0.481677 Br
0.944697 0.248380 0.977332 Br
0.471864 0.247841 0.462610 Br
0.055300 0.751617 0.022661 Br
0.528142 0.752149 0.537393 Br
0.535377 0.249040 0.056631 Br
0.025538 0.247974 0.518326 Br
0.249185 0.453582 0.950702 Br
0.747699 0.479410 0.462894 Br
0.455701 0.541394 0.245921 Br
0.954971 0.527483 0.751643 Br
0.553430 0.047799 0.752677 Br
0.055623 0.028906 0.250704 Br
0.751875 0.948273 0.050867 Br
0.253114 0.968882 0.556585 Br
0.248122 0.051729 0.949123 Br
0.746892 0.031113 0.443421 Br
0.446572 0.952199 0.247321 Br
0.944372 0.971092 0.749287 Br
0.750817 0.546418 0.049288 Br
0.252319 0.520599 0.537121 Br
0.544305 0.458606 0.754076 Br
0.045025 0.472523 0.248344 Br
-0.375011 0.500002 0.500002 Pb
