Cs8 Pb7 Br24
1.0
8.420018 0.000000 8.077981
0.000000 11.763808 0.000000
-8.420018 0.000000 8.077981
Cs Pb Br Pb
8 6 24 1
direct
0.280888 0.262664 0.219953 Cs
0.757056 0.269461 0.701553 Cs
0.699590 0.735302 0.280527 Cs
0.213832 0.735939 0.764572 Cs
0.300415 0.264703 0.719459 Cs
0.786148 0.264080 0.235442 Cs
0.719114 0.737332 0.780037 Cs
0.242941 0.730534 0.298443 Cs
-0.000001 0.000012 -0.000003 Pb
0.500003 -0.000015 0.499995 Pb
0.499995 -0.000002 -0.000005 Pb
0.000002 0.000007 0.499999 Pb
0.499977 0.499999 0.000004 Pb
-0.000021 0.500005 0.500001 Pb
0.464982 0.752198 0.960379 Br
0.975017 0.752039 0.452096 Br
0.950144 0.249030 0.967914 Br
0.478949 0.248468 0.471032 Br
0.049858 0.750963 0.032099 Br
0.521044 0.751497 0.528959 Br
0.535006 0.247800 0.039605 Br
0.024997 0.247971 0.547901 Br
0.247372 0.457792 0.953617 Br
0.750533 0.471687 0.455538 Br
0.460751 0.526804 0.247120 Br
0.954034 0.539463 0.749253 Br
0.554500 0.038341 0.753399 Br
0.051803 0.047068 0.252398 Br
0.751854 0.955500 0.053675 Br
0.250873 0.970686 0.556048 Br
0.248142 0.044505 0.946309 Br
0.749142 0.029311 0.443963 Br
0.445492 0.961648 0.246597 Br
0.948198 0.952935 0.747604 Br
0.752640 0.542205 0.046382 Br
0.249494 0.528330 0.544481 Br
0.539245 0.473193 0.752874 Br
0.045992 0.460540 0.250782 Br
0.124998 0.500004 0.875000 Pb
