Cs8 Pb8 Br23                            
   1.0000000000000000     
     8.4564889999999995    0.0000000000000000    8.0403009999999995
     0.0000000000000000   11.7298469999999995    0.0000000000000000
    -8.4564889999999995    0.0000000000000000    8.0403009999999995
   Cs   Pb   Br
     8     8    23
Direct
  0.2733849999999975  0.2490700000000032  0.2099270000000004
  0.7740750000000034  0.2470720000000028  0.7041060000000030
  0.7113609999999966  0.7512309999999971  0.2639879999999977
  0.2171700000000030  0.7456749999999985  0.7734659999999991
  0.2507090000000005  0.2348240000000033  0.7319829999999996
  0.8030380000000008  0.2498659999999973  0.2281400000000033
  0.7527580000000000  0.7660959999999974  0.8110179999999971
  0.2163820000000030  0.7543950000000024  0.2774199999999993
  0.0043780000000027  0.0035620000000023  0.0007579999999976
  0.4997090000000028  0.9958340000000021  0.5087699999999984
  0.5053079999999994  0.0051910000000035  0.0079660000000032
  0.9989580000000018  0.9963020000000000  0.4952520000000007
  0.4995919999999998  0.5058220000000020  0.0006899999999987
  0.9962060000000008  0.5005719999999982  0.4953620000000001
  0.0009090000000000  0.4996280000000013  0.9959950000000006
  0.4920180000000016  0.4882759999999990  0.4883250000000032
  0.4796309999999977  0.7546559999999971  0.9706630000000018
  0.9649829999999966  0.7486079999999973  0.4563989999999976
  0.9689770000000024  0.2517160000000018  0.9619489999999971
  0.4572920000000025  0.2379499999999979  0.4949409999999972
  0.0288899999999970  0.7516210000000001  0.0186700000000002
  0.5332489999999979  0.2577690000000032  0.0428590000000000
  0.0185719999999989  0.2486219999999975  0.5173199999999980
  0.2514449999999968  0.4658549999999977  0.9448470000000029
  0.7368809999999968  0.4648120000000020  0.4459420000000023
  0.4489590000000021  0.5440249999999978  0.2402730000000020
  0.9459710000000001  0.5296999999999983  0.7422460000000015
  0.5555629999999994  0.0305359999999979  0.7608630000000005
  0.0566290000000009  0.0350299999999990  0.2491040000000027
  0.7567329999999970  0.9746400000000008  0.0584789999999984
  0.2543549999999968  0.9549549999999982  0.5476420000000033
  0.2523770000000027  0.0289619999999999  0.9591479999999990
  0.7461380000000020  0.0298299999999969  0.4508379999999974
  0.4526990000000026  0.9608649999999983  0.2593949999999978
  0.9635620000000031  0.9801700000000011  0.7438020000000023
  0.7524969999999982  0.5332590000000010  0.0449359999999999
  0.2461410000000015  0.5277549999999991  0.5467569999999995
  0.0534639999999982  0.4680109999999971  0.2467850000000027
  0.5336989999999986  0.6263489999999976  0.6566979999999987

  0.00000000E+00  0.00000000E+00  0.00000000E+00
  0.00000000E+00  0.00000000E+00  0.00000000E+00
  0.00000000E+00  0.00000000E+00  0.00000000E+00
  0.00000000E+00  0.00000000E+00  0.00000000E+00
  0.00000000E+00  0.00000000E+00  0.00000000E+00
  0.00000000E+00  0.00000000E+00  0.00000000E+00
  0.00000000E+00  0.00000000E+00  0.00000000E+00
  0.00000000E+00  0.00000000E+00  0.00000000E+00
  0.00000000E+00  0.00000000E+00  0.00000000E+00
  0.00000000E+00  0.00000000E+00  0.00000000E+00
  0.00000000E+00  0.00000000E+00  0.00000000E+00
  0.00000000E+00  0.00000000E+00  0.00000000E+00
  0.00000000E+00  0.00000000E+00  0.00000000E+00
  0.00000000E+00  0.00000000E+00  0.00000000E+00
  0.00000000E+00  0.00000000E+00  0.00000000E+00
  0.00000000E+00  0.00000000E+00  0.00000000E+00
  0.00000000E+00  0.00000000E+00  0.00000000E+00
  0.00000000E+00  0.00000000E+00  0.00000000E+00
  0.00000000E+00  0.00000000E+00  0.00000000E+00
  0.00000000E+00  0.00000000E+00  0.00000000E+00
  0.00000000E+00  0.00000000E+00  0.00000000E+00
  0.00000000E+00  0.00000000E+00  0.00000000E+00
  0.00000000E+00  0.00000000E+00  0.00000000E+00
  0.00000000E+00  0.00000000E+00  0.00000000E+00
  0.00000000E+00  0.00000000E+00  0.00000000E+00
  0.00000000E+00  0.00000000E+00  0.00000000E+00
  0.00000000E+00  0.00000000E+00  0.00000000E+00
  0.00000000E+00  0.00000000E+00  0.00000000E+00
  0.00000000E+00  0.00000000E+00  0.00000000E+00
  0.00000000E+00  0.00000000E+00  0.00000000E+00
  0.00000000E+00  0.00000000E+00  0.00000000E+00
  0.00000000E+00  0.00000000E+00  0.00000000E+00
  0.00000000E+00  0.00000000E+00  0.00000000E+00
  0.00000000E+00  0.00000000E+00  0.00000000E+00
  0.00000000E+00  0.00000000E+00  0.00000000E+00
  0.00000000E+00  0.00000000E+00  0.00000000E+00
  0.00000000E+00  0.00000000E+00  0.00000000E+00
  0.00000000E+00  0.00000000E+00  0.00000000E+00
  0.00000000E+00  0.00000000E+00  0.00000000E+00
