Cs8 Pb8 Br23
1.0
8.456489 0.000000 8.040301
0.000000 11.729847 0.000000
-8.456489 0.000000 8.040301
Cs Pb Br
8 8 23
direct
0.273385 0.249070 0.209927 Cs
0.774075 0.247072 0.704106 Cs
0.711361 0.751231 0.263988 Cs
0.217170 0.745675 0.773466 Cs
0.250709 0.234824 0.731983 Cs
0.803038 0.249866 0.228140 Cs
0.752758 0.766096 0.811018 Cs
0.216382 0.754395 0.277420 Cs
0.004378 0.003562 0.000758 Pb
0.499709 -0.004166 0.508770 Pb
0.505308 0.005191 0.007966 Pb
-0.001042 -0.003698 0.495252 Pb
0.499592 0.505822 0.000690 Pb
-0.003794 0.500572 0.495362 Pb
0.000909 0.499628 -0.004005 Pb
0.492018 0.488276 0.488325 Pb
0.479631 0.754656 0.970663 Br
0.964983 0.748608 0.456399 Br
0.968977 0.251716 0.961949 Br
0.457292 0.237950 0.494941 Br
0.028890 0.751621 0.018670 Br
0.533249 0.257769 0.042859 Br
0.018572 0.248622 0.517320 Br
0.251445 0.465855 0.944847 Br
0.736881 0.464812 0.445942 Br
0.448959 0.544025 0.240273 Br
0.945971 0.529700 0.742246 Br
0.555563 0.030536 0.760863 Br
0.056629 0.035030 0.249104 Br
0.756733 0.974640 0.058479 Br
0.254355 0.954955 0.547642 Br
0.252377 0.028962 0.959148 Br
0.746138 0.029830 0.450838 Br
0.452699 0.960865 0.259395 Br
0.963562 0.980170 0.743802 Br
0.752497 0.533259 0.044936 Br
0.246141 0.527755 0.546757 Br
0.053464 0.468011 0.246785 Br
0.533699 0.626349 0.656698 Br
