Cs64 Pb64 Br191
1.0
16.840035 0.000000 16.155961
0.000000 23.527616 0.000000
-16.840035 0.000000 16.155961
Cs Pb Br Cs Pb Br
56 56 168 8 8 23
direct
0.886393 0.875561 0.353561 Cs
0.136338 0.875113 0.603561 Cs
0.885996 0.374693 0.352417 Cs
0.136029 0.374675 0.604881 Cs
0.886545 0.875211 0.853891 Cs
0.135942 0.875201 0.103243 Cs
0.385767 0.874760 0.354774 Cs
0.635775 0.874359 0.603320 Cs
0.886004 0.374767 0.853569 Cs
0.135992 0.374852 0.103191 Cs
0.386098 0.875148 0.853272 Cs
0.636103 0.874872 0.103737 Cs
0.386336 0.374760 0.853536 Cs
0.635997 0.374941 0.103048 Cs
0.103867 0.124994 0.386229 Cs
0.353564 0.124922 0.635443 Cs
0.100052 0.625715 0.384991 Cs
0.103493 0.125010 0.886084 Cs
0.353672 0.124965 0.135955 Cs
0.603737 0.124205 0.385674 Cs
0.854062 0.124816 0.636131 Cs
0.104167 0.625013 0.885972 Cs
0.354180 0.625102 0.135659 Cs
0.854316 0.625802 0.636334 Cs
0.603840 0.124954 0.886075 Cs
0.853844 0.124928 0.135816 Cs
0.603638 0.624624 0.886693 Cs
0.853379 0.625118 0.136933 Cs
0.896566 0.875230 0.113882 Cs
0.146354 0.875068 0.363970 Cs
0.896410 0.375018 0.113716 Cs
0.146710 0.374654 0.363339 Cs
0.896777 0.875205 0.614128 Cs
0.146410 0.875229 0.864060 Cs
0.395806 0.875384 0.113458 Cs
0.647734 0.876730 0.362540 Cs
0.890628 0.374126 0.613015 Cs
0.146616 0.374844 0.864136 Cs
0.396130 0.375103 0.113951 Cs
0.396864 0.874043 0.614291 Cs
0.646154 0.875089 0.864138 Cs
0.646853 0.374732 0.864662 Cs
0.113904 0.125004 0.146118 Cs
0.363999 0.124576 0.396416 Cs
0.114058 0.625052 0.146993 Cs
0.114110 0.125016 0.646412 Cs
0.363899 0.124818 0.896552 Cs
0.613868 0.124867 0.146329 Cs
0.864461 0.124985 0.396505 Cs
0.112317 0.625417 0.646307 Cs
0.364070 0.625105 0.897284 Cs
0.614352 0.625456 0.143487 Cs
0.865955 0.626957 0.389733 Cs
0.613755 0.124176 0.646150 Cs
0.864402 0.124837 0.896962 Cs
0.863885 0.625249 0.896496 Cs
0.751005 0.751720 0.249146 Pb
0.000210 0.750586 0.500281 Pb
0.750279 0.249516 0.249696 Pb
0.000062 0.250080 0.500154 Pb
0.750239 0.750758 0.750212 Pb
0.000084 0.749952 0.999953 Pb
0.249463 0.750741 0.249539 Pb
0.503300 0.744334 0.499797 Pb
0.750729 0.248340 0.750866 Pb
1.000038 0.250212 0.999962 Pb
0.249616 0.750367 0.750436 Pb
0.499778 0.750481 0.999807 Pb
0.249938 0.249747 0.750216 Pb
0.500033 0.249733 0.000148 Pb
0.000522 0.750773 0.249662 Pb
0.250389 0.749285 0.500051 Pb
0.000133 0.249808 0.249909 Pb
1.000061 0.750275 0.750260 Pb
0.249872 0.750264 0.999968 Pb
0.498991 0.751194 0.249417 Pb
0.750467 0.750624 0.499961 Pb
0.000096 0.250128 0.750074 Pb
0.250010 0.249999 0.999985 Pb
0.749924 0.249475 0.500001 Pb
0.500135 0.749421 0.750188 Pb
0.750221 0.750338 0.999951 Pb
0.499634 0.248813 0.750650 Pb
0.750139 0.249709 0.000088 Pb
0.000091 0.000367 0.249907 Pb
0.250019 0.999584 0.500056 Pb
0.000343 0.499553 0.249707 Pb
0.000085 0.000237 0.750073 Pb
0.249950 0.000267 0.999931 Pb
0.499754 0.999908 0.249827 Pb
0.750313 0.000077 0.500170 Pb
1.000027 0.499741 0.750354 Pb
0.249876 0.499994 0.000041 Pb
0.751108 0.503387 0.500325 Pb
0.499948 0.999638 0.750150 Pb
0.750060 -0.000032 0.000007 Pb
0.499465 0.499148 0.750374 Pb
0.750231 0.500167 0.000144 Pb
0.750318 0.000685 0.249852 Pb
0.000170 0.000216 0.500105 Pb
0.749837 0.499189 0.249508 Pb
0.000353 0.499032 0.499760 Pb
0.750099 0.999542 0.750105 Pb
0.000084 0.000118 0.000042 Pb
0.249938 0.000307 0.249925 Pb
0.500139 0.997929 0.500000 Pb
0.750690 0.500099 0.750894 Pb
0.000068 0.500270 0.999948 Pb
0.250055 0.000118 0.750096 Pb
0.500012 0.999982 -0.000001 Pb
0.249953 0.499861 0.750501 Pb
0.499880 0.499735 0.000000 Pb
0.984282 0.125279 0.230447 Br
0.235179 0.125351 0.481384 Br
0.983850 0.625087 0.233250 Br
0.230866 0.624836 0.476992 Br
0.984606 0.125188 0.730525 Br
0.234233 0.125221 0.980387 Br
0.484331 0.125331 0.231099 Br
0.734733 0.125684 0.480513 Br
0.984036 0.624966 0.731052 Br
0.234499 0.625046 0.981144 Br
0.487011 0.625513 0.230042 Br
0.484024 0.124093 0.730356 Br
0.734412 0.125002 0.980543 Br
0.734094 0.625052 0.981178 Br
0.230192 0.875348 0.234087 Br
0.483684 0.863501 0.486284 Br
0.230344 0.374744 0.233817 Br
0.230777 0.874972 0.734246 Br
0.480271 0.875141 0.983750 Br
0.732824 0.875964 0.232887 Br
0.981095 0.874930 0.484548 Br
0.230961 0.375110 0.734391 Br
0.480780 0.374934 0.984463 Br
0.730144 0.374824 0.233896 Br
0.977986 0.375184 0.484684 Br
0.729683 0.874687 0.733781 Br
0.981013 0.875008 0.984543 Br
0.980576 0.375320 0.984335 Br
0.770307 0.125498 0.266192 Br
0.019112 0.125322 0.515774 Br
0.763057 0.625288 0.265941 Br
0.016205 0.624046 0.515694 Br
0.770480 0.124156 0.766274 Br
0.019141 0.125229 0.015578 Br
0.270054 0.125095 0.265979 Br
0.517230 0.119760 0.514505 Br
0.768598 0.624994 0.765067 Br
0.020201 0.625063 0.015878 Br
0.270016 0.125052 0.765400 Br
0.519705 0.124982 0.015749 Br
0.266737 0.625020 0.769169 Br
0.518381 0.625075 0.015210 Br
0.015977 0.875402 0.269205 Br
0.266793 0.874131 0.519211 Br
0.016004 0.375042 0.269664 Br
0.015795 0.875059 0.769182 Br
0.265455 0.875191 0.019004 Br
0.514728 0.875473 0.271621 Br
0.765901 0.875401 0.519674 Br
0.016011 0.375138 0.770101 Br
0.265824 0.375106 0.019244 Br
0.754045 0.377328 0.518878 Br
0.515880 0.873948 0.767918 Br
0.765878 0.875025 0.019680 Br
0.516963 0.373893 0.768589 Br
0.765710 0.375096 0.018820 Br
0.874041 0.982283 0.224519 Br
0.124032 0.982089 0.474572 Br
0.873788 0.482334 0.224809 Br
0.121921 0.481928 0.475301 Br
0.873899 0.981942 0.724529 Br
0.123954 0.982208 0.974517 Br
0.373986 0.981927 0.224645 Br
0.623717 0.981930 0.474553 Br
0.873846 0.482422 0.723979 Br
0.123905 0.482036 0.974459 Br
0.373921 0.482297 0.225556 Br
0.374011 0.981818 0.724275 Br
0.623912 0.982008 0.974625 Br
0.623959 0.482202 0.974656 Br
0.974683 0.017980 0.374007 Br
0.224619 0.017873 0.623805 Br
0.974053 0.516738 0.374215 Br
0.223808 0.519605 0.623471 Br
0.974637 0.017900 0.873831 Br
0.224633 0.018087 0.123959 Br
0.474203 0.016865 0.374303 Br
0.724648 0.017970 0.623813 Br
0.974424 0.518055 0.873763 Br
0.224535 0.517580 0.123874 Br
0.474688 0.017851 0.873744 Br
0.724591 0.018203 0.123949 Br
0.474319 0.517645 0.873915 Br
0.724501 0.517740 0.124140 Br
0.025736 0.767855 0.126077 Br
0.275457 0.767785 0.376106 Br
0.025469 0.268031 0.126168 Br
0.025590 0.767958 0.626074 Br
0.275564 0.768214 0.875955 Br
0.523506 0.769261 0.125882 Br
0.775188 0.768613 0.375784 Br
0.025190 0.268257 0.626006 Br
0.275632 0.267966 0.876040 Br
0.525555 0.268081 0.126283 Br
0.775411 0.268209 0.376369 Br
0.527388 0.763763 0.625267 Br
0.775818 0.768115 0.875756 Br
0.775766 0.267409 0.876261 Br
0.126179 0.231995 0.275629 Br
0.376299 0.233845 0.525104 Br
0.126225 0.732282 0.275754 Br
0.126269 0.232010 0.775395 Br
0.376199 0.232046 0.025529 Br
0.626168 0.232043 0.275757 Br
0.876025 0.233164 0.526120 Br
0.126017 0.732282 0.775438 Br
0.376050 0.732205 0.025312 Br
0.876486 0.732388 0.524964 Br
0.626310 0.232250 0.774739 Br
0.876095 0.232150 0.025573 Br
0.626224 0.732755 0.777464 Br
0.876104 0.731784 0.025660 Br
0.874705 0.767736 0.224309 Br
0.125134 0.767835 0.475052 Br
0.873877 0.268133 0.224487 Br
0.123909 0.268671 0.474607 Br
0.873758 0.767983 0.724427 Br
0.123890 0.767961 0.974348 Br
0.373677 0.768086 0.224554 Br
0.624742 0.768168 0.471521 Br
0.874021 0.267554 0.724385 Br
0.123960 0.267960 0.974561 Br
0.374059 0.268261 0.224736 Br
0.374039 0.767761 0.724677 Br
0.623908 0.767909 0.974840 Br
0.623926 0.267808 0.974596 Br
0.974576 0.232170 0.374013 Br
0.224708 0.232300 0.623779 Br
0.975150 0.734640 0.373978 Br
0.224311 0.731574 0.623823 Br
0.974525 0.232099 0.873851 Br
0.224639 0.231954 0.123980 Br
0.474292 0.231876 0.373970 Br
0.724587 0.231807 0.624118 Br
0.974535 0.732032 0.873844 Br
0.224389 0.732431 0.123813 Br
0.474455 0.231814 0.874069 Br
0.724492 0.231903 0.124116 Br
0.474608 0.731948 0.873509 Br
0.725301 0.732250 0.123619 Br
0.126224 0.018181 0.275569 Br
0.376392 0.016012 0.525828 Br
0.125975 0.517641 0.276177 Br
0.126198 0.018042 0.775427 Br
0.376186 0.018034 0.025443 Br
0.626181 0.017836 0.275237 Br
0.876028 0.017942 0.525462 Br
0.126094 0.517692 0.775091 Br
0.376164 0.517767 0.025517 Br
0.869028 0.515441 0.524340 Br
0.626101 0.018042 0.775357 Br
0.876091 0.017885 0.025449 Br
0.626202 0.515884 0.776386 Br
0.876074 0.518317 0.025799 Br
0.025522 0.982189 0.126134 Br
0.275556 0.982056 0.376197 Br
0.025573 0.482164 0.126253 Br
0.025591 0.982103 0.626004 Br
0.275590 0.982104 0.876017 Br
0.525413 0.981821 0.126249 Br
0.775584 0.982230 0.376182 Br
0.023177 0.481067 0.625391 Br
0.275605 0.481832 0.875722 Br
0.525313 0.482115 0.126734 Br
0.772136 0.479150 0.376731 Br
0.525614 0.981646 0.625790 Br
0.775461 0.981798 0.876038 Br
0.776172 0.482818 0.875959 Br
0.386935 0.374669 0.354881 Cs
0.635221 0.368041 0.616599 Cs
0.611054 0.633215 0.372235 Cs
0.350015 0.627840 0.641467 Cs
0.397059 0.372115 0.613712 Cs
0.646642 0.370074 0.362792 Cs
0.618160 0.625085 0.656046 Cs
0.359810 0.625197 0.389700 Cs
0.249972 0.249674 0.249888 Pb
0.500205 0.248136 0.499313 Pb
0.499797 0.249951 0.249649 Pb
0.249768 0.250517 0.499897 Pb
0.499889 0.500024 0.250010 Pb
0.247292 0.501477 0.500017 Pb
0.249614 0.499323 0.249659 Pb
0.492834 0.501559 0.502937 Pb
0.483710 0.623808 0.730093 Br
0.738965 0.625984 0.473470 Br
0.735381 0.374422 0.737782 Br
0.492396 0.373312 0.483463 Br
0.266219 0.624955 0.262000 Br
0.515606 0.375343 0.270710 Br
0.266402 0.376563 0.519583 Br
0.373914 0.481277 0.723485 Br
0.478028 0.520716 0.376160 Br
0.723568 0.516993 0.623143 Br
0.523487 0.263929 0.625867 Br
0.275631 0.268226 0.376207 Br
0.626218 0.740567 0.268209 Br
0.378186 0.725675 0.523456 Br
0.374131 0.267841 0.724708 Br
0.623939 0.263940 0.474335 Br
0.476093 0.727988 0.374059 Br
0.724970 0.731655 0.623463 Br
0.626106 0.513958 0.276173 Br
0.375438 0.528929 0.524932 Br
0.523216 0.476764 0.626286 Br
0.275442 0.481945 0.376594 Br
0.569568 0.596871 0.511068 Br
