Cs64 Pb64 Br191
1.0
16.840035 0.000000 16.155961
0.000000 23.527616 0.000000
-16.840035 0.000000 16.155961
Cs Pb Br Cs Pb Br
56 56 168 8 8 23
Selective dynamics
direct
0.886426 0.875598 0.353591 F F F
0.136250 0.875118 0.603684 F F F
0.885831 0.374864 0.352782 F F F
0.135865 0.374916 0.604754 F F F
0.886480 0.875190 0.853945 F F F
0.135898 0.875189 0.103316 F F F
0.385303 0.875004 0.353900 F F F
0.636031 0.874455 0.603564 F F F
0.886005 0.374794 0.853636 F F F
0.135930 0.374888 0.103245 F F F
0.386074 0.875167 0.853356 F F F
0.636126 0.874842 0.103839 F F F
0.386217 0.374774 0.853662 F F F
0.636041 0.375045 0.103240 F F F
0.103852 0.125036 0.386249 F F F
0.353444 0.125066 0.635549 F F F
0.099749 0.625563 0.384872 F F F
0.103482 0.125045 0.886070 F F F
0.353741 0.124995 0.135967 F F F
0.604057 0.124350 0.385501 F F F
0.854068 0.124902 0.636126 F F F
0.104143 0.624974 0.885967 F F F
0.354224 0.625084 0.135612 F F F
0.854355 0.625320 0.635879 F F F
0.603944 0.124965 0.886114 F F F
0.853819 0.124970 0.135853 F F F
0.603845 0.624643 0.886532 F F F
0.853393 0.625046 0.137023 F F F
0.896504 0.875260 0.113923 F F F
0.146241 0.875121 0.363915 F F F
0.896389 0.375002 0.113745 F F F
0.146552 0.374842 0.363589 F F F
0.896668 0.875198 0.614174 F F F
0.146345 0.875232 0.864079 F F F
0.395714 0.875421 0.113439 F F F
0.648518 0.876315 0.362979 F F F
0.889831 0.374573 0.612524 F F F
0.146610 0.374883 0.864197 F F F
0.396023 0.375122 0.113950 F F F
0.396386 0.874540 0.614831 F F F
0.646148 0.875066 0.864146 F F F
0.646839 0.374802 0.864682 F F F
0.113881 0.125021 0.146088 F F F
0.363814 0.124679 0.396252 F F F
0.114035 0.625030 0.146999 F F F
0.114087 0.125062 0.646432 F F F
0.363885 0.124840 0.896563 F F F
0.613954 0.124934 0.146343 F F F
0.864413 0.125056 0.396517 F F F
0.111884 0.625396 0.646165 F F F
0.364062 0.625066 0.897434 F F F
0.614409 0.625317 0.143447 F F F
0.867097 0.626097 0.389407 F F F
0.614097 0.124309 0.646554 F F F
0.864388 0.124872 0.896915 F F F
0.863879 0.625206 0.896411 F F F
0.751074 0.751544 0.249219 F F F
0.000012 0.750660 0.500279 F F F
0.750254 0.249645 0.249741 F F F
0.999997 0.250171 0.500203 F F F
0.750254 0.750673 0.750154 F F F
0.000053 0.749954 0.999958 F F F
0.249398 0.750739 0.249514 F F F
0.501079 0.748312 0.499290 F F F
0.750770 0.248653 0.750828 F F F
0.000030 0.250212 0.999960 F F F
0.249523 0.750364 0.750505 F F F
0.499798 0.750465 0.999801 F F F
0.249876 0.249821 0.750217 F F F
0.500044 0.249802 0.000162 F F F
0.000457 0.750817 0.249686 F F F
0.249969 0.749414 0.499943 F F F
0.000072 0.249860 0.249942 F F F
0.999977 0.750257 0.750256 F F F
0.249835 0.750262 0.999959 F F F
0.499052 0.751318 0.249282 F F F
0.750697 0.750836 0.499904 F F F
0.000075 0.250249 0.750040 F F F
0.249994 0.250026 0.999987 F F F
0.749988 0.250084 0.500019 F F F
0.500098 0.749355 0.750232 F F F
0.750251 0.750289 0.999986 F F F
0.499668 0.248886 0.750738 F F F
0.750143 0.249757 0.000122 F F F
0.000057 0.000403 0.249907 F F F
0.249880 0.999718 0.500051 F F F
0.000278 0.499438 0.249663 F F F
0.000054 0.000275 0.750074 F F F
0.249938 0.000263 0.999940 F F F
0.499871 0.000008 0.249826 F F F
0.750299 0.000395 0.500153 F F F
0.999953 0.499721 0.750337 F F F
0.249865 0.499978 0.000019 F F F
0.747642 0.504710 0.500194 F F F
0.499986 0.999696 0.750222 F F F
0.750080 0.999984 0.000043 F F F
0.499456 0.499048 0.750376 F F F
0.750234 0.500127 0.000207 F F F
0.750332 0.000652 0.249858 F F F
0.000112 0.000305 0.500132 F F F
0.749881 0.499186 0.249837 F F F
0.999697 0.499022 0.499786 F F F
0.750155 0.999608 0.750145 F F F
0.000067 0.000142 0.000044 F F F
0.249882 0.000371 0.249884 F F F
0.500191 0.999644 0.500142 F F F
0.750742 0.500200 0.750932 F F F
0.000041 0.500270 0.999921 F F F
0.249995 0.000194 0.750139 F F F
0.500040 0.000058 0.000028 F F F
0.249851 0.499904 0.750520 F F F
0.499897 0.499750 0.999995 F F F
0.984241 0.125295 0.230463 F F F
0.235166 0.125390 0.481441 F F F
0.983818 0.625122 0.233599 F F F
0.230178 0.625250 0.476897 F F F
0.984584 0.125221 0.730629 F F F
0.234195 0.125212 0.980453 F F F
0.484413 0.125403 0.231218 F F F
0.734703 0.125965 0.480661 F F F
0.983828 0.624999 0.731235 F F F
0.234450 0.625073 0.981193 F F F
0.487003 0.625640 0.230174 F F F
0.484034 0.124060 0.730311 F F F
0.734400 0.124999 0.980647 F F F
0.734109 0.625080 0.981249 F F F
0.230300 0.875377 0.234137 F F F
0.482350 0.865709 0.485789 F F F
0.230361 0.374739 0.233901 F F F
0.230908 0.875013 0.734253 F F F
0.480341 0.875130 0.983771 F F F
0.732921 0.875923 0.232913 F F F
0.981067 0.875036 0.484635 F F F
0.231027 0.375159 0.734376 F F F
0.480731 0.374934 0.984486 F F F
0.729893 0.374840 0.234234 F F F
0.977867 0.375069 0.484864 F F F
0.729807 0.874793 0.733854 F F F
0.981010 0.875044 0.984566 F F F
0.980629 0.375343 0.984367 F F F
0.770120 0.125484 0.266220 F F F
0.019090 0.125313 0.515839 F F F
0.763468 0.625323 0.266235 F F F
0.015869 0.624196 0.515428 F F F
0.770329 0.124293 0.766231 F F F
0.019101 0.125237 0.015631 F F F
0.270030 0.125106 0.266004 F F F
0.517786 0.121367 0.514924 F F F
0.768701 0.625082 0.765031 F F F
0.020114 0.625108 0.015911 F F F
0.269929 0.125086 0.765488 F F F
0.519687 0.124973 0.015800 F F F
0.266647 0.625086 0.769505 F F F
0.518438 0.625107 0.015139 F F F
0.015997 0.875443 0.269041 F F F
0.266860 0.874292 0.519331 F F F
0.015986 0.375026 0.269604 F F F
0.015786 0.875090 0.769181 F F F
0.265473 0.875212 0.019014 F F F
0.515031 0.875531 0.271960 F F F
0.765830 0.875866 0.519608 F F F
0.016144 0.375159 0.770247 F F F
0.265803 0.375110 0.019255 F F F
0.753538 0.377744 0.518194 F F F
0.515851 0.873899 0.767762 F F F
0.765837 0.875045 0.019681 F F F
0.516856 0.373876 0.769043 F F F
0.765708 0.375078 0.018891 F F F
0.874096 0.982302 0.224534 F F F
0.124157 0.982072 0.474598 F F F
0.873877 0.482251 0.224822 F F F
0.120415 0.482030 0.475233 F F F
0.873925 0.981963 0.724524 F F F
0.124013 0.982181 0.974546 F F F
0.374064 0.981948 0.224674 F F F
0.623612 0.981951 0.474594 F F F
0.873938 0.482291 0.724186 F F F
0.123960 0.482041 0.974484 F F F
0.373986 0.482281 0.225593 F F F
0.374069 0.981961 0.724402 F F F
0.623931 0.981996 0.974643 F F F
0.623975 0.482194 0.974685 F F F
0.974666 0.017992 0.374063 F F F
0.224637 0.017892 0.623853 F F F
0.974157 0.515895 0.374097 F F F
0.223425 0.519632 0.623593 F F F
0.974606 0.017907 0.873899 F F F
0.224618 0.018097 0.124027 F F F
0.474303 0.017290 0.374531 F F F
0.724579 0.017966 0.623880 F F F
0.974396 0.518067 0.873870 F F F
0.224507 0.517584 0.123902 F F F
0.474664 0.017851 0.873812 F F F
0.724555 0.018188 0.124008 F F F
0.474329 0.517756 0.874066 F F F
0.724542 0.517751 0.124148 F F F
0.025740 0.767821 0.126057 F F F
0.275509 0.767814 0.376091 F F F
0.025486 0.268025 0.126137 F F F
0.025570 0.767961 0.626033 F F F
0.275558 0.768264 0.875911 F F F
0.523383 0.769334 0.125934 F F F
0.775223 0.768847 0.375763 F F F
0.025232 0.268255 0.625990 F F F
0.275631 0.267946 0.876018 F F F
0.525555 0.268144 0.126328 F F F
0.775383 0.268194 0.376353 F F F
0.527118 0.763992 0.624679 F F F
0.775718 0.768080 0.875742 F F F
0.775722 0.267505 0.876226 F F F
0.126151 0.231982 0.275645 F F F
0.376355 0.234048 0.525093 F F F
0.126201 0.732311 0.275814 F F F
0.126214 0.232041 0.775427 F F F
0.376160 0.232034 0.025537 F F F
0.626086 0.232138 0.275800 F F F
0.875946 0.233242 0.526167 F F F
0.125954 0.732285 0.775485 F F F
0.376026 0.732202 0.025291 F F F
0.876340 0.732823 0.525192 F F F
0.626217 0.232231 0.774792 F F F
0.876040 0.232145 0.025603 F F F
0.626036 0.732514 0.776752 F F F
0.876056 0.731781 0.025712 F F F
0.874731 0.767751 0.224257 F F F
0.125029 0.767981 0.474949 F F F
0.873909 0.268177 0.224522 F F F
0.124007 0.268625 0.474614 F F F
0.873798 0.768013 0.724448 F F F
0.123939 0.767989 0.974374 F F F
0.373735 0.768137 0.224520 F F F
0.623897 0.767541 0.472048 F F F
0.874043 0.267696 0.724302 F F F
0.124009 0.267978 0.974573 F F F
0.374116 0.268288 0.224766 F F F
0.374048 0.767762 0.724667 F F F
0.623903 0.767915 0.974840 F F F
0.623945 0.267844 0.974607 F F F
0.974568 0.232171 0.374070 F F F
0.224717 0.232316 0.623840 F F F
0.974921 0.734996 0.374033 F F F
0.224168 0.731559 0.623864 F F F
0.974508 0.232104 0.873916 F F F
0.224630 0.231945 0.124056 F F F
0.474264 0.231922 0.374196 F F F
0.724599 0.231894 0.624183 F F F
0.974511 0.732051 0.873914 F F F
0.224366 0.732442 0.123890 F F F
0.474453 0.231780 0.874112 F F F
0.724473 0.231979 0.124178 F F F
0.474678 0.731884 0.873408 F F F
0.725253 0.732168 0.123708 F F F
0.126195 0.018196 0.275612 F F F
0.376463 0.016609 0.525781 F F F
0.125964 0.517659 0.276097 F F F
0.126155 0.018033 0.775469 F F F
0.376145 0.018042 0.025475 F F F
0.626105 0.017807 0.275299 F F F
0.875987 0.017998 0.525500 F F F
0.126029 0.517710 0.775151 F F F
0.376113 0.517769 0.025540 F F F
0.866629 0.515038 0.523369 F F F
0.626020 0.018033 0.775397 F F F
0.876041 0.017908 0.025493 F F F
0.626073 0.516302 0.775976 F F F
0.876057 0.518321 0.025847 F F F
0.025544 0.982208 0.126107 F F F
0.275509 0.982104 0.376174 F F F
0.025610 0.482193 0.126149 F F F
0.025580 0.982101 0.625977 F F F
0.275599 0.982112 0.875995 F F F
0.525396 0.981807 0.126286 F F F
0.775599 0.982257 0.376142 F F F
0.022897 0.481260 0.625439 F F F
0.275573 0.481834 0.875698 F F F
0.525114 0.482036 0.126785 F F F
0.771695 0.479294 0.376656 F F F
0.525569 0.981681 0.625653 F F F
0.775449 0.981815 0.876004 F F F
0.776023 0.482606 0.876065 F F F
0.386463 0.374775 0.354305 F F F
0.635242 0.368325 0.615668 F F F
0.610843 0.633097 0.372677 F F F
0.349558 0.627547 0.641777 F F F
0.396532 0.372231 0.613853 F F F
0.646683 0.370906 0.363543 F F F
0.618119 0.624696 0.654181 F F F
0.358822 0.624837 0.389597 F F F
0.249907 0.249691 0.249866 F F F
0.500363 0.248277 0.499374 F F F
0.499903 0.250135 0.249665 F F F
0.249691 0.250625 0.499921 F F F
0.500003 0.500099 0.250138 F F F
0.247507 0.501941 0.500161 F F F
0.249564 0.499293 0.249622 F F F
0.493361 0.499641 0.502775 F F F
0.483952 0.623769 0.729121 F F F
0.741460 0.627133 0.472707 F F F
0.735110 0.374534 0.737529 F F F
0.494287 0.375006 0.482780 F F F
0.266076 0.625003 0.261816 F F F
0.515748 0.375456 0.271216 F F F
0.266309 0.376645 0.519440 F F F
0.373876 0.481399 0.723801 F F F
0.478214 0.521222 0.376446 F F F
0.724729 0.517418 0.623859 F F F
0.523548 0.264034 0.625742 F F F
0.275645 0.268202 0.376156 F F F
0.626149 0.740400 0.268312 F F F
0.377804 0.725724 0.523819 F F F
0.374170 0.267798 0.724725 F F F
0.623852 0.263720 0.474241 F F F
0.475145 0.728103 0.374296 F F F
0.724943 0.731651 0.623491 F F F
0.626005 0.514323 0.275962 F F F
0.372850 0.528923 0.525128 F F F
0.521726 0.475302 0.626566 F F F
0.275423 0.482010 0.376458 F F F
0.589859 0.574348 0.509331 T T T