Cs63 Pb64 Br192
1.0
16.840035 0.000000 16.155961
0.000000 23.527616 0.000000
-16.840035 0.000000 16.155961
Cs Pb Br Cs Pb Br Cs
56 56 168 6 8 24 1
Selective Dynamics 
Direct
0.886405 0.875746 0.353628 F F F
0.136094 0.875057 0.603686 F F F
0.882915 0.375794 0.352629 F F F
0.136717 0.375117 0.603779 F F F
0.886312 0.875684 0.853861 F F F
0.136346 0.875103 0.104504 F F F
0.388316 0.875981 0.353406 F F F
0.636487 0.875229 0.605702 F F F
0.886580 0.373983 0.853235 F F F
0.136182 0.375115 0.103663 F F F
0.386432 0.875043 0.853067 F F F
0.638504 0.875877 0.107208 F F F
0.385364 0.375006 0.851687 F F F
0.636394 0.382099 0.118482 F F F
0.103754 0.125446 0.385989 F F F
0.355818 0.125391 0.636086 F F F
0.103750 0.626873 0.386067 F F F
0.103374 0.124996 0.886272 F F F
0.355847 0.125571 0.138600 F F F
0.606953 0.126366 0.388872 F F F
0.852829 0.125227 0.635838 F F F
0.103051 0.625537 0.886487 F F F
0.351078 0.625435 0.135177 F F F
0.859431 0.629299 0.640021 F F F
0.604193 0.125550 0.886437 F F F
0.853746 0.125724 0.137016 F F F
0.603103 0.624666 0.885055 F F F
0.860539 0.628559 0.136110 F F F
0.895844 0.875225 0.114267 F F F
0.147352 0.874946 0.364069 F F F
0.895844 0.374575 0.114251 F F F
0.147533 0.374694 0.364344 F F F
0.896106 0.875200 0.613527 F F F
0.147135 0.875315 0.864226 F F F
0.397173 0.875508 0.114712 F F F
0.645977 0.874809 0.363800 F F F
0.900758 0.375207 0.617336 F F F
0.147335 0.375051 0.864284 F F F
0.392131 0.371061 0.112194 F F F
0.396911 0.874869 0.613812 F F F
0.646474 0.874892 0.864525 F F F
0.648032 0.376075 0.867438 F F F
0.114487 0.125432 0.146846 F F F
0.364866 0.125748 0.396480 F F F
0.114368 0.625508 0.146291 F F F
0.114277 0.125218 0.646093 F F F
0.364393 0.125152 0.896699 F F F
0.614350 0.125666 0.145824 F F F
0.864292 0.124881 0.399506 F F F
0.114600 0.625276 0.646548 F F F
0.363629 0.626776 0.897190 F F F
0.616232 0.634336 0.135569 F F F
0.863436 0.626033 0.399944 F F F
0.614053 0.125195 0.645494 F F F
0.863687 0.125605 0.898348 F F F
0.865920 0.625428 0.900153 F F F
0.750075 0.749314 0.253212 F F F
0.000064 0.750423 0.499975 F F F
0.749871 0.251288 0.254293 F F F
0.999689 0.250641 0.499986 F F F
0.750068 0.749942 0.750485 F F F
0.000367 0.750897 0.000082 F F F
0.252741 0.750288 0.250503 F F F
0.502559 0.749955 0.496885 F F F
0.750852 0.250013 0.751491 F F F
0.000129 0.250340 0.000336 F F F
0.250249 0.750341 0.749935 F F F
0.499564 0.751060 0.999903 F F F
0.250028 0.249856 0.750187 F F F
0.500522 0.251138 0.000520 F F F
0.000625 0.750911 0.250610 F F F
0.250964 0.750694 0.499982 F F F
0.999796 0.250471 0.250412 F F F
0.000510 0.751074 0.750381 F F F
0.250185 0.750682 0.000316 F F F
0.503092 0.748972 0.250676 F F F
0.748836 0.747385 0.500029 F F F
0.000359 0.249676 0.750107 F F F
0.250108 0.249502 0.000091 F F F
0.749757 0.253407 0.500379 F F F
0.500994 0.749855 0.748860 F F F
0.750112 0.750857 0.999890 F F F
0.500471 0.250220 0.750887 F F F
0.749471 0.251228 0.003351 F F F
0.000075 0.000482 0.250141 F F F
0.250199 0.000407 0.500017 F F F
0.001605 0.500041 0.250826 F F F
0.000064 0.000400 0.750039 F F F
0.250355 0.000403 0.000297 F F F
0.500541 0.001997 0.250110 F F F
0.750112 0.999323 0.500347 F F F
0.001719 0.499924 0.750779 F F F
0.249503 0.500623 0.999742 F F F
0.754464 0.500393 0.507963 F F F
0.500295 0.999988 0.750153 F F F
0.749994 0.000758 0.000209 F F F
0.499866 0.499721 0.750131 F F F
0.750531 0.500842 0.000605 F F F
0.750238 0.001129 0.250631 F F F
0.000151 0.000472 0.500104 F F F
0.755009 0.501682 0.247021 F F F
0.000604 0.500236 0.499807 F F F
0.750184 0.000386 0.750241 F F F
0.000139 0.000547 0.000239 F F F
0.250329 0.000312 0.250255 F F F
0.500285 0.000545 0.500033 F F F
0.753360 0.502501 0.753759 F F F
0.000172 0.500004 0.000201 F F F
0.250220 0.000401 0.750039 F F F
0.500166 0.000597 0.000313 F F F
0.250456 0.500714 0.750065 F F F
0.497041 0.499290 0.997263 F F F
0.985100 0.125558 0.230758 F F F
0.234257 0.125376 0.480257 F F F
0.987480 0.625586 0.233135 F F F
0.235517 0.625847 0.479626 F F F
0.984435 0.125232 0.730098 F F F
0.233696 0.125108 0.979839 F F F
0.485478 0.127042 0.231813 F F F
0.735895 0.126306 0.486704 F F F
0.987674 0.625613 0.734176 F F F
0.233352 0.625882 0.981152 F F F
0.484315 0.626207 0.220256 F F F
0.485273 0.124993 0.731911 F F F
0.733933 0.126245 0.983114 F F F
0.733021 0.626246 0.979902 F F F
0.231940 0.875438 0.234170 F F F
0.481031 0.875969 0.485189 F F F
0.230886 0.375885 0.233884 F F F
0.231055 0.875528 0.734275 F F F
0.479711 0.876114 0.983436 F F F
0.733588 0.875954 0.236688 F F F
0.981427 0.875671 0.484485 F F F
0.231913 0.375374 0.734303 F F F
0.476856 0.375160 0.981258 F F F
0.740956 0.376920 0.239118 F F F
0.979630 0.375962 0.483955 F F F
0.731721 0.875351 0.735436 F F F
0.980918 0.875859 0.984550 F F F
0.980509 0.375411 0.984557 F F F
0.771906 0.125726 0.266952 F F F
0.019389 0.125708 0.515855 F F F
0.777210 0.626513 0.265281 F F F
0.020057 0.625609 0.516305 F F F
0.770578 0.125186 0.767361 F F F
0.019789 0.125623 0.016445 F F F
0.268938 0.125664 0.266505 F F F
0.518899 0.125854 0.515743 F F F
0.774296 0.626504 0.770875 F F F
0.017950 0.625724 0.016476 F F F
0.270407 0.125319 0.765777 F F F
0.519264 0.125957 0.015748 F F F
0.271073 0.625665 0.765288 F F F
0.515296 0.625477 0.012675 F F F
0.017246 0.875938 0.270033 F F F
0.265521 0.875849 0.520147 F F F
0.016000 0.375501 0.271247 F F F
0.016974 0.875829 0.770462 F F F
0.266157 0.875655 0.020139 F F F
0.516813 0.875931 0.266566 F F F
0.766087 0.874584 0.519720 F F F
0.017129 0.374898 0.769258 F F F
0.263873 0.375260 0.016991 F F F
0.767937 0.376198 0.532141 F F F
0.516594 0.874921 0.769154 F F F
0.765862 0.876146 0.018888 F F F
0.518339 0.374757 0.771979 F F F
0.762299 0.376512 0.024580 F F F
0.874386 0.982288 0.224582 F F F
0.124137 0.982180 0.474563 F F F
0.877144 0.483081 0.222510 F F F
0.123278 0.482451 0.473730 F F F
0.874277 0.982010 0.724564 F F F
0.124145 0.982120 0.974691 F F F
0.374189 0.982982 0.224553 F F F
0.624295 0.982415 0.474645 F F F
0.876869 0.481962 0.727655 F F F
0.123434 0.482238 0.974049 F F F
0.373080 0.480023 0.222421 F F F
0.374130 0.982109 0.724543 F F F
0.624107 0.982199 0.974713 F F F
0.623167 0.483183 0.979451 F F F
0.974686 0.018168 0.374106 F F F
0.224672 0.018281 0.624142 F F F
0.973922 0.518717 0.374474 F F F
0.224453 0.518097 0.623864 F F F
0.974394 0.018558 0.874076 F F F
0.224615 0.018283 0.124033 F F F
0.474852 0.018207 0.374068 F F F
0.724576 0.017759 0.624619 F F F
0.975024 0.517935 0.874570 F F F
0.224274 0.518040 0.124200 F F F
0.474627 0.018096 0.874059 F F F
0.724720 0.017990 0.124245 F F F
0.472151 0.519498 0.873256 F F F
0.736354 0.526339 0.122826 F F F
0.025469 0.768057 0.126130 F F F
0.276403 0.769808 0.376269 F F F
0.025816 0.268308 0.126121 F F F
0.025692 0.767972 0.626441 F F F
0.275790 0.768321 0.876177 F F F
0.525604 0.771241 0.125500 F F F
0.777210 0.769140 0.377305 F F F
0.027315 0.267791 0.626531 F F F
0.275742 0.267823 0.876084 F F F
0.525899 0.271109 0.126296 F F F
0.782949 0.261241 0.379056 F F F
0.525304 0.767797 0.625869 F F F
0.776007 0.769773 0.876206 F F F
0.775338 0.267987 0.878500 F F F
0.126650 0.232376 0.275577 F F F
0.375857 0.232030 0.525157 F F F
0.127837 0.732496 0.274841 F F F
0.126360 0.231706 0.776101 F F F
0.375824 0.231349 0.025879 F F F
0.626864 0.225015 0.271640 F F F
0.876721 0.233390 0.528107 F F F
0.126502 0.732482 0.776067 F F F
0.375841 0.732857 0.026025 F F F
0.876457 0.732691 0.526181 F F F
0.626487 0.232638 0.775377 F F F
0.876267 0.232658 0.026264 F F F
0.626588 0.732225 0.775822 F F F
0.876459 0.734221 0.024459 F F F
0.876206 0.769950 0.226180 F F F
0.124003 0.768228 0.474636 F F F
0.874930 0.267533 0.224807 F F F
0.123885 0.268064 0.474640 F F F
0.874780 0.769769 0.725584 F F F
0.124163 0.768406 0.974519 F F F
0.375897 0.768171 0.224129 F F F
0.625556 0.775401 0.480038 F F F
0.874825 0.267594 0.725194 F F F
0.123913 0.267936 0.974486 F F F
0.375357 0.267798 0.226621 F F F
0.374266 0.768083 0.724699 F F F
0.623964 0.768012 0.976417 F F F
0.623897 0.267924 0.975256 F F F
0.974760 0.231907 0.374267 F F F
0.224997 0.232226 0.624167 F F F
0.974674 0.732245 0.374402 F F F
0.224751 0.732206 0.624125 F F F
0.974628 0.231889 0.874140 F F F
0.225125 0.232357 0.124000 F F F
0.475851 0.232027 0.374550 F F F
0.725395 0.231775 0.626515 F F F
0.974795 0.732596 0.874262 F F F
0.224715 0.732315 0.124112 F F F
0.474918 0.231761 0.874989 F F F
0.725992 0.233302 0.126845 F F F
0.474859 0.732424 0.873850 F F F
0.730455 0.736355 0.124541 F F F
0.126272 0.018125 0.275670 F F F
0.376109 0.018167 0.525652 F F F
0.127295 0.518528 0.277470 F F F
0.126239 0.018329 0.775708 F F F
0.376169 0.019187 0.026347 F F F
0.626449 0.018966 0.276523 F F F
0.876452 0.017519 0.526320 F F F
0.127358 0.518408 0.777512 F F F
0.373845 0.519927 0.023628 F F F
0.877547 0.520906 0.530048 F F F
0.626280 0.018149 0.775848 F F F
0.876286 0.018434 0.025996 F F F
0.627253 0.517685 0.772915 F F F
0.876494 0.518283 0.025669 F F F
0.025751 0.982128 0.126070 F F F
0.275856 0.982060 0.376155 F F F
0.026546 0.482536 0.126629 F F F
0.025835 0.982124 0.626265 F F F
0.275839 0.982047 0.876177 F F F
0.526302 0.982845 0.125947 F F F
0.775921 0.982835 0.376512 F F F
0.027490 0.483091 0.626498 F F F
0.275701 0.482422 0.876000 F F F
0.510880 0.474510 0.122040 F F F
0.779145 0.489102 0.377507 F F F
0.525721 0.982572 0.626311 F F F
0.775782 0.982540 0.876374 F F F
0.778683 0.481777 0.877847 F F F
0.389333 0.374678 0.352926 F F F
0.635906 0.369035 0.616882 F F F
0.357054 0.627884 0.635922 F F F
0.391519 0.372388 0.614282 F F F
0.614323 0.620471 0.635224 F F F
0.368537 0.625524 0.399375 F F F
0.250694 0.250717 0.250423 F F F
0.502715 0.252235 0.499182 F F F
0.503952 0.254193 0.251635 F F F
0.250690 0.249919 0.499955 F F F
0.496559 0.501170 0.243346 F F F
0.249540 0.500726 0.499637 F F F
0.250194 0.500747 0.250868 F F F
0.496225 0.500337 0.503505 F F F
0.488348 0.624574 0.728310 F F F
0.730466 0.623258 0.480922 F F F
0.736392 0.376233 0.740010 F F F
0.476249 0.375420 0.486401 F F F
0.272101 0.625376 0.268119 F F F
0.508096 0.625121 0.516563 F F F
0.521573 0.378578 0.270571 F F F
0.263988 0.375593 0.517682 F F F
0.374029 0.481947 0.725017 F F F
0.624490 0.487836 0.519793 F F F
0.474003 0.513413 0.373860 F F F
0.739494 0.527373 0.629201 F F F
0.522938 0.265832 0.627128 F F F
0.276324 0.268751 0.376121 F F F
0.627805 0.731309 0.274683 F F F
0.376251 0.735811 0.525526 F F F
0.374119 0.267267 0.726191 F F F
0.624700 0.271498 0.477474 F F F
0.470304 0.739212 0.373202 F F F
0.725513 0.730850 0.625096 F F F
0.626248 0.514609 0.231233 F F F
0.373344 0.517688 0.528730 F F F
0.514776 0.475066 0.628536 F F F
0.277868 0.481793 0.376177 F F F
0.627389 0.501599 0.375561 T T T
