Cs64 Pb64 Br191
1.0
16.840035 0.000000 16.155961
0.000000 23.527616 0.000000
-16.840035 0.000000 16.155961
Cs Pb Br Cs Pb Br
56 56 168 8 8 23
Selective dynamics
direct
0.885955 0.875081 0.353744 F F F
0.135990 0.874891 0.604107 F F F
0.885940 0.375098 0.353487 F F F
0.135472 0.374770 0.603836 F F F
0.888897 0.877793 0.854038 F F F
0.135877 0.875095 0.103232 F F F
0.385574 0.874568 0.353457 F F F
0.637608 0.875108 0.604014 F F F
0.886348 0.375009 0.854383 F F F
0.135775 0.374899 0.103546 F F F
0.385479 0.875750 0.855261 F F F
0.635856 0.875230 0.103900 F F F
0.387151 0.373335 0.849645 F F F
0.638385 0.374829 0.103681 F F F
0.103025 0.124663 0.385756 F F F
0.353450 0.122416 0.636305 F F F
0.100253 0.625014 0.385006 F F F
0.103568 0.124986 0.885936 F F F
0.354711 0.124974 0.136228 F F F
0.603578 0.124757 0.384877 F F F
0.854322 0.124999 0.636204 F F F
0.103850 0.625033 0.886311 F F F
0.350787 0.625161 0.134291 F F F
0.853532 0.625538 0.636179 F F F
0.603977 0.125217 0.886668 F F F
0.853904 0.125082 0.135998 F F F
0.603829 0.625784 0.885534 F F F
0.854003 0.625070 0.136970 F F F
0.896315 0.875097 0.113905 F F F
0.146013 0.875034 0.363593 F F F
0.896552 0.374929 0.114064 F F F
0.146450 0.374061 0.364307 F F F
0.896054 0.875105 0.613885 F F F
0.146579 0.874957 0.864050 F F F
0.395530 0.874947 0.114138 F F F
0.646675 0.874576 0.364117 F F F
0.896372 0.374729 0.613834 F F F
0.147568 0.374952 0.863134 F F F
0.393393 0.374699 0.113357 F F F
0.395934 0.874534 0.614605 F F F
0.647188 0.877497 0.865912 F F F
0.642732 0.375110 0.862148 F F F
0.113891 0.125002 0.146134 F F F
0.364324 0.123711 0.395293 F F F
0.114125 0.625023 0.146786 F F F
0.114185 0.125173 0.646071 F F F
0.363947 0.125343 0.896119 F F F
0.613957 0.125117 0.146698 F F F
0.864010 0.124897 0.395972 F F F
0.114152 0.624874 0.644811 F F F
0.367379 0.624298 0.895860 F F F
0.614171 0.625627 0.141845 F F F
0.864183 0.625098 0.396618 F F F
0.614346 0.124394 0.646275 F F F
0.864200 0.125184 0.896471 F F F
0.863853 0.625172 0.895851 F F F
0.750381 0.750432 0.249754 F F F
0.000060 0.750138 0.500083 F F F
0.750157 0.249758 0.249877 F F F
0.999823 0.249445 0.499867 F F F
0.752900 0.753261 0.753372 F F F
0.000017 0.749988 0.000080 F F F
0.249437 0.750683 0.249527 F F F
0.500270 0.747658 0.501327 F F F
0.750216 0.250272 0.750193 F F F
0.000054 0.250237 0.999978 F F F
0.250413 0.749376 0.750028 F F F
0.499990 0.751003 0.000451 F F F
0.249570 0.248920 0.750544 F F F
0.500042 0.250393 0.000308 F F F
0.000087 0.750321 0.249917 F F F
0.249433 0.749407 0.500132 F F F
0.000013 0.249970 0.249951 F F F
0.000808 0.750041 0.750340 F F F
0.249984 0.750106 0.999655 F F F
0.499937 0.749115 0.249915 F F F
0.750922 0.750795 0.500325 F F F
0.999871 0.250309 0.750057 F F F
0.249793 0.249681 0.999960 F F F
0.750116 0.249463 0.499923 F F F
0.500383 0.753915 0.752917 F F F
0.750334 0.750411 0.000335 F F F
0.500602 0.249557 0.749838 F F F
0.750162 0.250410 0.999920 F F F
0.999961 0.000131 0.249943 F F F
0.249736 0.998814 0.499866 F F F
0.000071 0.499720 0.249953 F F F
0.000184 0.000291 0.749863 F F F
0.249876 0.000195 0.999977 F F F
0.500032 0.999477 0.249927 F F F
0.750240 0.000544 0.499875 F F F
0.000031 0.500255 0.749965 F F F
0.249748 0.499961 0.999396 F F F
0.749900 0.499530 0.500906 F F F
0.500008 0.000939 0.750313 F F F
0.750262 0.000566 0.000235 F F F
0.499744 0.503838 0.747835 F F F
0.750352 0.500265 0.999874 F F F
0.750124 0.000038 0.249930 F F F
0.999976 0.999776 0.499972 F F F
0.750430 0.500074 0.249653 F F F
0.998967 0.499562 0.499944 F F F
0.750304 0.000866 0.750276 F F F
0.000177 0.000317 0.000177 F F F
0.249803 0.000128 0.249787 F F F
0.500315 0.998137 0.500265 F F F
0.750473 0.499437 0.749893 F F F
0.000068 0.500290 0.000010 F F F
0.249821 0.999344 0.750013 F F F
0.499913 0.000671 0.000198 F F F
0.250227 0.500741 0.750045 F F F
0.500069 0.498776 0.000339 F F F
0.984354 0.125062 0.231040 F F F
0.234122 0.123248 0.479681 F F F
0.984679 0.624966 0.231844 F F F
0.230350 0.624749 0.479332 F F F
0.984787 0.125362 0.730945 F F F
0.234140 0.125038 0.980267 F F F
0.485026 0.125556 0.233594 F F F
0.733370 0.125285 0.479933 F F F
0.984453 0.625124 0.730275 F F F
0.236177 0.624939 0.979370 F F F
0.484085 0.624885 0.223690 F F F
0.484436 0.126033 0.730449 F F F
0.734590 0.125680 0.981010 F F F
0.733877 0.625562 0.980328 F F F
0.230678 0.875176 0.233716 F F F
0.482897 0.864866 0.485139 F F F
0.230902 0.374483 0.234137 F F F
0.231437 0.874131 0.734205 F F F
0.481380 0.875604 0.985373 F F F
0.730725 0.875029 0.234389 F F F
0.980658 0.874676 0.484283 F F F
0.235591 0.374680 0.731959 F F F
0.478763 0.375256 0.983053 F F F
0.731975 0.375171 0.234208 F F F
0.980710 0.374408 0.484222 F F F
0.730991 0.876544 0.735271 F F F
0.981677 0.875195 0.984918 F F F
0.981126 0.375374 0.984608 F F F
0.768768 0.125062 0.265667 F F F
0.018647 0.124529 0.515953 F F F
0.767682 0.625118 0.267265 F F F
0.017292 0.624576 0.515714 F F F
0.769596 0.126159 0.765747 F F F
0.019054 0.125332 0.015601 F F F
0.269604 0.124723 0.265266 F F F
0.518121 0.119747 0.514289 F F F
0.765924 0.626221 0.764861 F F F
0.019634 0.625147 0.016015 F F F
0.268432 0.124278 0.765741 F F F
0.519004 0.125803 0.016432 F F F
0.273253 0.624374 0.764769 F F F
0.516745 0.624434 0.011886 F F F
0.015443 0.875116 0.269077 F F F
0.266388 0.873740 0.519502 F F F
0.015759 0.374943 0.269338 F F F
0.017107 0.875171 0.767994 F F F
0.265728 0.875069 0.018335 F F F
0.515398 0.874078 0.270069 F F F
0.765972 0.875644 0.517337 F F F
0.016082 0.375457 0.769280 F F F
0.264582 0.375008 0.018101 F F F
0.764346 0.374784 0.520154 F F F
0.516202 0.877406 0.771984 F F F
0.765209 0.875524 0.019414 F F F
0.516585 0.377524 0.756614 F F F
0.766898 0.375713 0.018655 F F F
0.873921 0.982120 0.224475 F F F
0.123985 0.981713 0.474499 F F F
0.873946 0.482252 0.224288 F F F
0.120667 0.481952 0.473327 F F F
0.873988 0.982267 0.724390 F F F
0.123978 0.982183 0.974388 F F F
0.374105 0.982038 0.224640 F F F
0.623649 0.981589 0.474447 F F F
0.873912 0.482289 0.724218 F F F
0.124076 0.482221 0.973705 F F F
0.374347 0.482012 0.225444 F F F
0.374187 0.982006 0.724547 F F F
0.623853 0.983511 0.975736 F F F
0.623703 0.481894 0.974749 F F F
0.974457 0.017849 0.374003 F F F
0.224490 0.017759 0.623846 F F F
0.973245 0.517293 0.373963 F F F
0.225699 0.517151 0.623113 F F F
0.974671 0.018097 0.873910 F F F
0.224590 0.018025 0.123983 F F F
0.474199 0.014678 0.374616 F F F
0.724679 0.017847 0.623897 F F F
0.974464 0.518129 0.873833 F F F
0.224326 0.517392 0.122771 F F F
0.474582 0.018408 0.873901 F F F
0.724477 0.018108 0.124029 F F F
0.477610 0.510658 0.865988 F F F
0.724729 0.518040 0.123925 F F F
0.025636 0.767866 0.126105 F F F
0.275353 0.767950 0.375879 F F F
0.025507 0.267885 0.126063 F F F
0.025492 0.767825 0.625977 F F F
0.275692 0.767700 0.875815 F F F
0.525009 0.768270 0.127343 F F F
0.775180 0.767619 0.375858 F F F
0.025480 0.267836 0.625977 F F F
0.275685 0.268076 0.875718 F F F
0.525222 0.270596 0.126447 F F F
0.775570 0.268033 0.376149 F F F
0.526922 0.766685 0.627093 F F F
0.780080 0.770218 0.877076 F F F
0.775264 0.268310 0.875865 F F F
0.126160 0.231965 0.275613 F F F
0.376026 0.229420 0.525692 F F F
0.125949 0.732499 0.275811 F F F
0.125851 0.232353 0.775541 F F F
0.376092 0.232080 0.025533 F F F
0.625994 0.232663 0.275653 F F F
0.875611 0.231968 0.525519 F F F
0.126823 0.731293 0.775149 F F F
0.376173 0.732523 0.025462 F F F
0.876278 0.732331 0.525459 F F F
0.626055 0.232046 0.775752 F F F
0.875954 0.232202 0.025430 F F F
0.627341 0.739234 0.781861 F F F
0.876004 0.731836 0.025995 F F F
0.873942 0.767904 0.224349 F F F
0.124604 0.768046 0.474652 F F F
0.873964 0.267837 0.224479 F F F
0.123826 0.265126 0.473841 F F F
0.875211 0.768527 0.725199 F F F
0.123961 0.767734 0.974291 F F F
0.374026 0.767618 0.225416 F F F
0.623887 0.764501 0.474401 F F F
0.873782 0.268257 0.724435 F F F
0.123990 0.268050 0.974145 F F F
0.374126 0.268198 0.224751 F F F
0.375220 0.768139 0.724979 F F F
0.624032 0.767920 0.974617 F F F
0.623878 0.268548 0.974415 F F F
0.974287 0.232049 0.373983 F F F
0.225850 0.232807 0.623613 F F F
0.974268 0.732326 0.374036 F F F
0.225497 0.731574 0.623745 F F F
0.974427 0.232260 0.873890 F F F
0.224632 0.231988 0.123744 F F F
0.473412 0.233866 0.374465 F F F
0.724126 0.232166 0.623881 F F F
0.974714 0.732083 0.873957 F F F
0.224185 0.732479 0.123725 F F F
0.475110 0.232930 0.874123 F F F
0.724402 0.232230 0.123959 F F F
0.472767 0.736657 0.875707 F F F
0.724907 0.732192 0.123681 F F F
0.126119 0.017888 0.275483 F F F
0.376392 0.014998 0.525597 F F F
0.126027 0.517496 0.275726 F F F
0.126128 0.017900 0.775382 F F F
0.375997 0.018040 0.025465 F F F
0.625951 0.017499 0.275532 F F F
0.875802 0.018014 0.525453 F F F
0.126913 0.517971 0.774899 F F F
0.376393 0.517595 0.025050 F F F
0.873593 0.516903 0.527085 F F F
0.626078 0.018490 0.775606 F F F
0.876073 0.017960 0.025587 F F F
0.625796 0.517440 0.775444 F F F
0.875941 0.518352 0.025457 F F F
0.025582 0.982221 0.126046 F F F
0.275650 0.981698 0.376061 F F F
0.025514 0.482174 0.126046 F F F
0.025498 0.982161 0.625960 F F F
0.275321 0.982336 0.875963 F F F
0.525297 0.982294 0.126242 F F F
0.775443 0.982204 0.376030 F F F
0.025438 0.482024 0.625995 F F F
0.278059 0.481720 0.874748 F F F
0.524949 0.481504 0.123203 F F F
0.774328 0.482640 0.376532 F F F
0.525743 0.981088 0.626000 F F F
0.775803 0.982529 0.876057 F F F
0.775216 0.482035 0.875785 F F F
0.385296 0.374074 0.356884 F F F
0.635524 0.371755 0.603698 F F F
0.614113 0.625259 0.382408 F F F
0.361563 0.622150 0.636541 F F F
0.377900 0.367729 0.614662 F F F
0.649009 0.374776 0.363953 F F F
0.626597 0.635188 0.664151 F F F
0.356537 0.626398 0.391462 F F F
0.249888 0.249433 0.249843 F F F
0.499904 0.247076 0.500459 F F F
0.499999 0.251154 0.249980 F F F
0.249183 0.247418 0.499070 F F F
0.499818 0.501266 0.247744 F F F
0.246749 0.500702 0.498525 F F F
0.249290 0.499277 0.249398 F F F
0.496390 0.497160 0.492960 F F F
0.486501 0.628032 0.746103 F F F
0.736415 0.625109 0.484554 F F F
0.729124 0.375770 0.733561 F F F
0.479004 0.372223 0.497602 F F F
0.265241 0.624912 0.262339 F F F
0.514965 0.376741 0.273516 F F F
0.259276 0.373918 0.511362 F F F
0.375749 0.482334 0.720863 F F F
0.621117 0.481946 0.474898 F F F
0.478939 0.532310 0.372541 F F F
0.720739 0.517565 0.624317 F F F
0.526308 0.263199 0.625869 F F F
0.276539 0.265796 0.375774 F F F
0.625997 0.732212 0.273039 F F F
0.377138 0.727968 0.523864 F F F
0.374040 0.263498 0.726248 F F F
0.623257 0.268061 0.474651 F F F
0.478110 0.723965 0.376564 F F F
0.729205 0.739149 0.625194 F F F
0.625728 0.517932 0.272154 F F F
0.372378 0.513853 0.519767 F F F
0.274882 0.482328 0.374419 F F F
0.510634 0.575287 0.586396 T T T