Cs2 Pb2 Br6                             
   1.0000000000000000     
     5.8253265246882862    5.8912570963916568   -0.0860888461598191
     5.8253265246882862    0.0860888461598191   -5.8912570963916568
    -0.0000000000000000    5.9773459425514766   -5.9773459425514766
   Cs   Pb   Br
     2     2     6
Direct
  0.7500000000000000  0.7500000000000000  0.7406658497689648
  0.2500000000000000  0.2500000000000000  0.2593341502310352
  0.0000000000000000  0.0000000000000000 -0.0000000000000000
  0.5000000000000000  0.5000000000000000  0.5000000000000000
  0.2062446118999619  0.7062446118999619  0.2937553881000381
  0.7937553881000381  0.2937553881000381  0.7062446118999619
  0.2937553881000381  0.7937553881000381  0.7062446118999619
  0.7062446118999619  0.2062446118999619  0.2937553881000381
  0.2500000000000000  0.2500000000000000  0.8292177429071894
  0.7500000000000000  0.7500000000000000  0.1707822570928108

  0.00000000E+00  0.00000000E+00 -0.00000000E+00
  0.00000000E+00  0.00000000E+00 -0.00000000E+00
  0.00000000E+00  0.00000000E+00 -0.00000000E+00
  0.00000000E+00  0.00000000E+00 -0.00000000E+00
  0.00000000E+00  0.00000000E+00 -0.00000000E+00
  0.00000000E+00  0.00000000E+00 -0.00000000E+00
  0.00000000E+00  0.00000000E+00 -0.00000000E+00
  0.00000000E+00  0.00000000E+00 -0.00000000E+00
  0.00000000E+00  0.00000000E+00 -0.00000000E+00
  0.00000000E+00  0.00000000E+00 -0.00000000E+00
