Cs8 Pb7 Br24
1.0
8.420018 0.000000 8.077981
0.000000 11.763808 0.000000
-8.420018 0.000000 8.077981
Cs Pb Br Pb
8 6 24 1
direct
0.292995 0.254530 0.229023 Cs
0.744967 0.261290 0.692477 Cs
0.692684 0.742515 0.288555 Cs
0.220699 0.743111 0.756571 Cs
0.307321 0.257491 0.711430 Cs
0.779276 0.256906 0.243445 Cs
0.707009 0.745466 0.770971 Cs
0.255029 0.738705 0.307518 Cs
-0.000006 0.000010 -0.000007 Pb
0.500000 -0.000002 -0.000010 Pb
-0.000016 0.000006 0.500000 Pb
0.500000 0.500000 -0.000002 Pb
-0.000026 0.500003 0.500005 Pb
-0.000001 0.500003 0.000004 Pb
0.459679 0.751135 0.964612 Br
0.980319 0.750975 0.447860 Br
0.935970 0.249673 0.966324 Br
0.493146 0.249103 0.472596 Br
0.064030 0.750322 0.033687 Br
0.506849 0.750870 0.527397 Br
0.540312 0.248863 0.035374 Br
0.019693 0.249033 0.552138 Br
0.246282 0.450065 0.951280 Br
0.751481 0.478414 0.452988 Br
0.459097 0.524010 0.246049 Br
0.950245 0.547272 0.749766 Br
0.550713 0.030549 0.753917 Br
0.050218 0.049890 0.251324 Br
0.752805 0.948799 0.051144 Br
0.249772 0.978402 0.553785 Br
0.247191 0.051205 0.948839 Br
0.750252 0.021593 0.446227 Br
0.449280 0.969440 0.246083 Br
0.949783 0.950114 0.748676 Br
0.753720 0.549932 0.048716 Br
0.248546 0.521603 0.547033 Br
0.540900 0.475988 0.753946 Br
0.049779 0.452731 0.250265 Br
0.500006 -0.125017 0.499995 Pb
