Cs64 Pb64 Br191
1.0
16.840035 0.000000 16.155961
0.000000 23.527616 0.000000
-16.840035 0.000000 16.155961
Cs Pb Br Cs Pb Br
56 56 168 8 8 23
direct
0.885809 0.874859 0.353689 Cs
0.136095 0.875111 0.603951 Cs
0.886167 0.375024 0.353751 Cs
0.136184 0.374908 0.603770 Cs
0.886441 0.875247 0.854019 Cs
0.135763 0.875119 0.103237 Cs
0.384487 0.875856 0.351876 Cs
0.635997 0.874651 0.604574 Cs
0.886230 0.374795 0.853819 Cs
0.136099 0.374861 0.103968 Cs
0.386192 0.875155 0.853437 Cs
0.636082 0.875086 0.103805 Cs
0.386143 0.374865 0.853718 Cs
0.635793 0.375529 0.103626 Cs
0.103761 0.125022 0.386087 Cs
0.352896 0.124934 0.635973 Cs
0.102583 0.625014 0.385793 Cs
0.103529 0.125001 0.886095 Cs
0.354035 0.124949 0.135856 Cs
0.603838 0.125089 0.385055 Cs
0.853967 0.124945 0.636379 Cs
0.103982 0.625023 0.886117 Cs
0.353378 0.625086 0.135296 Cs
0.853772 0.624949 0.635844 Cs
0.603999 0.125119 0.886271 Cs
0.853756 0.125005 0.135947 Cs
0.604075 0.625136 0.888340 Cs
0.853397 0.625088 0.137104 Cs
0.896553 0.875104 0.113993 Cs
0.145818 0.875185 0.363718 Cs
0.896475 0.374933 0.113902 Cs
0.146015 0.374850 0.363985 Cs
0.896657 0.875228 0.614119 Cs
0.146210 0.875160 0.864020 Cs
0.396087 0.875363 0.113553 Cs
0.647043 0.875390 0.363511 Cs
0.897421 0.374773 0.614410 Cs
0.146267 0.374860 0.863940 Cs
0.394785 0.375316 0.114068 Cs
0.396236 0.874918 0.615532 Cs
0.645814 0.875250 0.864204 Cs
0.646170 0.374888 0.864532 Cs
0.113600 0.124892 0.146064 Cs
0.363072 0.124527 0.396174 Cs
0.114248 0.624934 0.146548 Cs
0.113969 0.124964 0.646416 Cs
0.364023 0.125059 0.896594 Cs
0.614009 0.125136 0.146244 Cs
0.864208 0.124980 0.396308 Cs
0.113659 0.624994 0.646257 Cs
0.363714 0.625122 0.896892 Cs
0.614194 0.625198 0.145538 Cs
0.864491 0.624941 0.396441 Cs
0.614529 0.125076 0.646953 Cs
0.864220 0.124985 0.896698 Cs
0.863686 0.625055 0.895804 Cs
0.750440 0.750852 0.249346 Pb
0.000195 0.750282 0.500086 Pb
0.750204 0.249816 0.249870 Pb
0.000037 0.249778 0.500045 Pb
0.750429 0.751121 0.750449 Pb
0.000035 0.749794 0.000062 Pb
0.249374 0.750790 0.249427 Pb
0.499354 0.753337 0.497557 Pb
0.750327 0.249488 0.750362 Pb
0.000029 0.250105 0.000005 Pb
0.249711 0.750290 0.750371 Pb
0.499886 0.750378 0.000031 Pb
0.249920 0.249774 0.750245 Pb
0.499968 0.250200 0.000114 Pb
0.000211 0.750147 0.249951 Pb
0.249772 0.749960 0.500124 Pb
0.999912 0.249844 0.249914 Pb
0.000101 0.750009 0.750161 Pb
0.249841 0.750304 0.999948 Pb
0.499294 0.750382 0.249476 Pb
0.750954 0.750591 0.500596 Pb
1.000031 0.249868 0.750101 Pb
0.249887 0.249837 0.999840 Pb
0.750238 0.249419 0.500093 Pb
0.500039 0.749682 0.750210 Pb
0.750297 0.750271 0.000115 Pb
0.499893 0.249852 0.750064 Pb
0.750140 0.249962 0.000121 Pb
0.999968 0.000104 0.249966 Pb
0.249724 0.999607 0.500097 Pb
0.000204 0.499785 0.249961 Pb
0.000033 0.000025 0.750092 Pb
0.249916 0.000087 0.999920 Pb
0.500018 1.000218 0.249767 Pb
0.750197 0.000383 0.500095 Pb
0.000116 0.500019 0.750190 Pb
0.249718 0.499865 0.999833 Pb
0.751065 0.498279 0.500725 Pb
0.499966 0.000499 0.750167 Pb
0.750112 0.000102 0.000082 Pb
0.500131 0.500066 0.750508 Pb
0.750367 0.499957 0.000167 Pb
0.750208 0.000444 0.249918 Pb
0.000018 0.000056 0.500027 Pb
0.750559 0.499331 0.249393 Pb
0.000221 0.499729 0.500101 Pb
0.750199 0.000188 0.750221 Pb
0.000016 0.999987 0.000029 Pb
0.249725 0.000188 0.249713 Pb
0.500190 0.001589 0.500250 Pb
0.750527 0.499255 0.750599 Pb
0.000027 0.500129 0.000048 Pb
0.249914 0.000182 0.750204 Pb
0.500032 0.000249 0.000059 Pb
0.249743 0.499741 0.750350 Pb
0.499772 0.500041 0.000784 Pb
0.984100 0.124989 0.230738 Br
0.234386 0.124639 0.481687 Br
0.984542 0.624941 0.231254 Br
0.232192 0.625081 0.480872 Br
0.984417 0.124957 0.730755 Br
0.234228 0.124994 0.980469 Br
0.484786 0.125769 0.231403 Br
0.733556 0.124855 0.480020 Br
0.984131 0.624994 0.730604 Br
0.234301 0.625052 0.981491 Br
0.484544 0.625470 0.228595 Br
0.484063 0.125190 0.729424 Br
0.734341 0.125070 0.980846 Br
0.734713 0.625093 0.981365 Br
0.230212 0.875256 0.233949 Br
0.481547 0.870432 0.484820 Br
0.232121 0.374538 0.235207 Br
0.231050 0.875012 0.734283 Br
0.480782 0.875223 0.983984 Br
0.731402 0.875404 0.234097 Br
0.980707 0.874998 0.484081 Br
0.231308 0.374960 0.734118 Br
0.480297 0.375374 0.984871 Br
0.731008 0.375062 0.233733 Br
0.981164 0.374923 0.484170 Br
0.729930 0.875328 0.734419 Br
0.981041 0.874878 0.984518 Br
0.980757 0.375120 0.984349 Br
0.769470 0.125276 0.266098 Br
0.019450 0.124912 0.515829 Br
0.765405 0.625192 0.267993 Br
0.018290 0.624989 0.515811 Br
0.769647 0.124919 0.766130 Br
0.019007 0.125030 0.015600 Br
0.269919 0.124680 0.265618 Br
0.518461 0.124939 0.515403 Br
0.766725 0.625219 0.764147 Br
0.019881 0.624954 0.015931 Br
0.269725 0.124988 0.765989 Br
0.519242 0.125339 0.015795 Br
0.267243 0.624993 0.767792 Br
0.518432 0.625156 0.016385 Br
0.015300 0.875021 0.269460 Br
0.267027 0.874417 0.520281 Br
0.015664 0.374895 0.269486 Br
0.015706 0.874930 0.769137 Br
0.265694 0.875118 0.019300 Br
0.515209 0.875234 0.270181 Br
0.764988 0.875074 0.519734 Br
0.015615 0.375032 0.769047 Br
0.265327 0.374946 0.019006 Br
0.766216 0.374236 0.520454 Br
0.515691 0.874853 0.766792 Br
0.765799 0.875071 0.019748 Br
0.516002 0.375182 0.768034 Br
0.765629 0.375101 0.019568 Br
0.873892 0.982126 0.224598 Br
0.124172 0.981878 0.474654 Br
0.874025 0.482228 0.224421 Br
0.124937 0.482084 0.474791 Br
0.873844 0.982025 0.724546 Br
0.123990 0.982127 0.974522 Br
0.374019 0.982076 0.224563 Br
0.623350 0.981988 0.474730 Br
0.873755 0.482233 0.724538 Br
0.123926 0.481999 0.974460 Br
0.374198 0.482403 0.226583 Br
0.374070 0.982205 0.724551 Br
0.623873 0.982137 0.974683 Br
0.623790 0.482155 0.975358 Br
0.974590 0.017950 0.374053 Br
0.224570 0.017887 0.623935 Br
0.974496 0.517802 0.374107 Br
0.224595 0.517993 0.623898 Br
0.974528 0.017891 0.873911 Br
0.224527 0.018104 0.123999 Br
0.474368 0.017659 0.374609 Br
0.724405 0.018037 0.623887 Br
0.974479 0.518046 0.873911 Br
0.224593 0.517281 0.123969 Br
0.474680 0.017963 0.873695 Br
0.724462 0.018073 0.124053 Br
0.474871 0.517929 0.875506 Br
0.724569 0.518129 0.124124 Br
0.025562 0.767907 0.126184 Br
0.274985 0.768649 0.376147 Br
0.025489 0.267964 0.126135 Br
0.025514 0.768008 0.626031 Br
0.275624 0.768155 0.875982 Br
0.524759 0.768448 0.126253 Br
0.774430 0.766901 0.376327 Br
0.025545 0.267922 0.626012 Br
0.275643 0.268008 0.876085 Br
0.524974 0.269097 0.126439 Br
0.775480 0.268112 0.376236 Br
0.527747 0.762466 0.624003 Br
0.775811 0.768107 0.876103 Br
0.775451 0.267898 0.876111 Br
0.126083 0.231934 0.275390 Br
0.376464 0.232300 0.525465 Br
0.126097 0.732351 0.275800 Br
0.126181 0.232048 0.775537 Br
0.376115 0.232132 0.025467 Br
0.625985 0.232449 0.275547 Br
0.875789 0.231868 0.525513 Br
0.126039 0.732239 0.775510 Br
0.376119 0.732258 0.025326 Br
0.876027 0.733003 0.525839 Br
0.625973 0.232024 0.775241 Br
0.876008 0.232125 0.025557 Br
0.625992 0.732635 0.777570 Br
0.876035 0.731814 0.025749 Br
0.874006 0.767762 0.224443 Br
0.124692 0.768088 0.474778 Br
0.873884 0.268019 0.224571 Br
0.124068 0.267933 0.474677 Br
0.873700 0.767946 0.724475 Br
0.123942 0.767979 0.974395 Br
0.373710 0.768105 0.224002 Br
0.623312 0.764145 0.471827 Br
0.873908 0.267826 0.724519 Br
0.123958 0.267954 0.974533 Br
0.373953 0.267340 0.224073 Br
0.374114 0.767547 0.724517 Br
0.623914 0.767956 0.974818 Br
0.623829 0.268006 0.974770 Br
0.974592 0.232045 0.374028 Br
0.224530 0.232092 0.624055 Br
0.974481 0.732153 0.374103 Br
0.224515 0.731958 0.623898 Br
0.974508 0.232108 0.873905 Br
0.224328 0.231898 0.123925 Br
0.473861 0.231493 0.374410 Br
0.724503 0.231982 0.623946 Br
0.974469 0.731981 0.873900 Br
0.224214 0.732541 0.123903 Br
0.474730 0.232276 0.873656 Br
0.724448 0.232073 0.124076 Br
0.474722 0.732003 0.873411 Br
0.724657 0.732009 0.124032 Br
0.126141 0.018075 0.275549 Br
0.376607 0.017289 0.525675 Br
0.126078 0.517351 0.276092 Br
0.126136 0.017976 0.775508 Br
0.376164 0.017969 0.025434 Br
0.625996 0.017807 0.275518 Br
0.875866 0.018003 0.525507 Br
0.126093 0.517745 0.775526 Br
0.376056 0.517854 0.025383 Br
0.876178 0.516659 0.525962 Br
0.625964 0.018176 0.775423 Br
0.876035 0.017914 0.025525 Br
0.626050 0.517425 0.777854 Br
0.876037 0.518269 0.025850 Br
0.025468 0.982109 0.126145 Br
0.275194 0.982187 0.376207 Br
0.025643 0.482031 0.126191 Br
0.025462 0.982033 0.626013 Br
0.275623 0.982009 0.876061 Br
0.525424 0.982150 0.126282 Br
0.775361 0.981949 0.376220 Br
0.025634 0.482040 0.626045 Br
0.275653 0.481913 0.875972 Br
0.523178 0.482073 0.130223 Br
0.774841 0.482571 0.376366 Br
0.525509 0.982142 0.625390 Br
0.775408 0.981950 0.876054 Br
0.775888 0.482166 0.876264 Br
0.380684 0.371996 0.349695 Cs
0.637918 0.374809 0.606799 Cs
0.621166 0.626193 0.378714 Cs
0.349865 0.625131 0.639077 Cs
0.395158 0.374999 0.614864 Cs
0.648141 0.374405 0.363896 Cs
0.621184 0.624925 0.657776 Cs
0.357308 0.626687 0.391294 Cs
0.249572 0.249003 0.249540 Pb
0.499949 0.249050 0.499834 Pb
0.500127 0.250873 0.250035 Pb
0.249622 0.249837 0.500252 Pb
0.499972 0.501367 0.252020 Pb
0.250006 0.500495 0.500082 Pb
0.249466 0.499701 0.249699 Pb
0.499638 0.495183 0.498814 Pb
0.484223 0.624844 0.729108 Br
0.737701 0.624480 0.485857 Br
0.731526 0.374788 0.735786 Br
0.477190 0.378728 0.480454 Br
0.265894 0.625145 0.262432 Br
0.514419 0.376200 0.274436 Br
0.266416 0.375292 0.518555 Br
0.374236 0.482382 0.724549 Br
0.623668 0.481778 0.475031 Br
0.724382 0.516161 0.624240 Br
0.524737 0.269443 0.624933 Br
0.273811 0.265821 0.376170 Br
0.625787 0.735452 0.272625 Br
0.377707 0.728077 0.524749 Br
0.374073 0.267955 0.724522 Br
0.623219 0.268362 0.475129 Br
0.472793 0.731001 0.374542 Br
0.723914 0.733572 0.624049 Br
0.626176 0.515763 0.273323 Br
0.377966 0.522867 0.524554 Br
0.527794 0.485959 0.626057 Br
0.276267 0.483055 0.376243 Br
0.484310 0.539003 0.381887 Br
