Cs64 Pb64 Br191
1.0
16.840035 0.000000 16.155961
0.000000 23.527616 0.000000
-16.840035 0.000000 16.155961
Cs Pb Br Cs Pb Br
56 56 168 8 8 23
Selective dynamics
direct
0.887723 0.877570 0.353791 F F F
0.136186 0.875300 0.604377 F F F
0.888841 0.374640 0.354476 F F F
0.135825 0.376108 0.602815 F F F
0.887786 0.877066 0.854769 F F F
0.135841 0.875290 0.103858 F F F
0.385247 0.875140 0.353533 F F F
0.636351 0.874780 0.603507 F F F
0.889103 0.374323 0.854318 F F F
0.135831 0.375125 0.104000 F F F
0.385352 0.875608 0.854434 F F F
0.636066 0.875144 0.103639 F F F
0.385619 0.374982 0.858279 F F F
0.634565 0.375086 0.102449 F F F
0.103513 0.125064 0.386259 F F F
0.353908 0.125616 0.636252 F F F
0.103398 0.625009 0.388634 F F F
0.103817 0.125285 0.886541 F F F
0.352687 0.125163 0.135712 F F F
0.606868 0.124434 0.386621 F F F
0.853454 0.126135 0.635246 F F F
0.103772 0.625231 0.885977 F F F
0.354161 0.625120 0.136086 F F F
0.865667 0.628759 0.632103 F F F
0.603326 0.125137 0.886190 F F F
0.857063 0.124397 0.135628 F F F
0.599740 0.625638 0.889920 F F F
0.856945 0.626089 0.138084 F F F
0.895967 0.875016 0.114031 F F F
0.146223 0.875088 0.364009 F F F
0.893566 0.376118 0.114330 F F F
0.145976 0.378761 0.367866 F F F
0.893332 0.875504 0.613223 F F F
0.146788 0.875383 0.864385 F F F
0.395010 0.875085 0.114005 F F F
0.649049 0.875639 0.364199 F F F
0.896260 0.375462 0.611264 F F F
0.146688 0.374897 0.864063 F F F
0.396166 0.375503 0.115540 F F F
0.396238 0.875051 0.616237 F F F
0.646264 0.878153 0.865428 F F F
0.647093 0.374831 0.867574 F F F
0.114278 0.125188 0.146128 F F F
0.363633 0.125055 0.395517 F F F
0.114099 0.625212 0.148316 F F F
0.113969 0.125450 0.646387 F F F
0.363545 0.124768 0.896701 F F F
0.611663 0.122567 0.143359 F F F
0.864687 0.125388 0.399252 F F F
0.114603 0.624527 0.645322 F F F
0.362709 0.624591 0.896498 F F F
0.613904 0.625490 0.147184 F F F
0.871757 0.624435 0.388911 F F F
0.614001 0.124962 0.646982 F F F
0.864482 0.125298 0.896150 F F F
0.863806 0.627810 0.893007 F F F
0.750262 0.750369 0.249875 F F F
0.000399 0.752115 0.500148 F F F
0.753410 0.247114 0.246779 F F F
0.000236 0.250621 0.500166 F F F
0.750940 0.753295 0.750648 F F F
0.000213 0.750202 0.000239 F F F
0.249655 0.750608 0.249787 F F F
0.500110 0.752105 0.500169 F F F
0.750135 0.250933 0.750046 F F F
0.000138 0.250552 0.000259 F F F
0.249954 0.750453 0.750306 F F F
0.499809 0.750826 0.000855 F F F
0.249851 0.250358 0.750190 F F F
0.499743 0.250190 0.000634 F F F
0.000635 0.751042 0.249981 F F F
0.250620 0.750610 0.500426 F F F
0.001368 0.250105 0.250308 F F F
0.000850 0.751608 0.750625 F F F
0.249846 0.750297 0.000116 F F F
0.500134 0.750148 0.250320 F F F
0.750164 0.748909 0.496744 F F F
0.000010 0.250428 0.749896 F F F
0.249934 0.250469 0.000228 F F F
0.750107 0.254020 0.500227 F F F
0.499644 0.750802 0.753414 F F F
0.750110 0.750527 0.000059 F F F
0.499618 0.250143 0.752746 F F F
0.750402 0.250057 0.999818 F F F
0.000214 0.000525 0.250050 F F F
0.249866 0.000205 0.500074 F F F
0.001100 0.499666 0.250367 F F F
0.000068 0.000795 0.749927 F F F
0.249871 0.000376 0.000062 F F F
0.500043 0.999399 0.250120 F F F
0.750147 0.000826 0.500081 F F F
0.999987 0.500034 0.750591 F F F
0.249603 0.500241 0.000261 F F F
0.728082 0.501414 0.489245 F F F
0.499820 0.000688 0.750299 F F F
0.750260 0.000748 0.000175 F F F
0.499500 0.497550 0.753352 F F F
0.749777 0.502564 0.003087 F F F
0.750320 0.000150 0.249791 F F F
0.000232 0.000713 0.500328 F F F
0.750322 0.499151 0.250451 F F F
0.995291 0.501442 0.502674 F F F
0.750316 0.001228 0.750179 F F F
0.000233 0.000408 0.000165 F F F
0.249905 0.000484 0.250031 F F F
0.500114 0.001523 0.500304 F F F
0.750446 0.498895 0.754683 F F F
0.000142 0.500743 0.000213 F F F
0.249902 0.000657 0.750065 F F F
0.499537 0.000074 0.000109 F F F
0.249860 0.499917 0.750665 F F F
0.499711 0.500678 0.003311 F F F
0.985567 0.125459 0.231560 F F F
0.234483 0.125362 0.480796 F F F
0.984272 0.625501 0.235894 F F F
0.234122 0.626414 0.481581 F F F
0.983437 0.125955 0.730438 F F F
0.234161 0.125576 0.981656 F F F
0.482175 0.123709 0.230257 F F F
0.735732 0.127284 0.484629 F F F
0.986950 0.626016 0.733566 F F F
0.233854 0.625412 0.981468 F F F
0.484356 0.624617 0.231942 F F F
0.484021 0.125127 0.732320 F F F
0.734455 0.126043 0.979125 F F F
0.734036 0.626022 0.977257 F F F
0.230801 0.875609 0.234362 F F F
0.482101 0.869023 0.486031 F F F
0.228873 0.375357 0.235835 F F F
0.231653 0.875488 0.734455 F F F
0.480480 0.875283 0.984569 F F F
0.731229 0.875064 0.233190 F F F
0.980799 0.876301 0.485032 F F F
0.230515 0.375540 0.733282 F F F
0.482847 0.375697 0.986856 F F F
0.738672 0.373971 0.224544 F F F
0.985013 0.375838 0.484411 F F F
0.730385 0.876309 0.733937 F F F
0.981446 0.875515 0.985181 F F F
0.980218 0.375852 0.985801 F F F
0.774580 0.124414 0.266312 F F F
0.018072 0.125755 0.516366 F F F
0.768203 0.624224 0.265432 F F F
0.013920 0.626577 0.517709 F F F
0.769526 0.126615 0.765486 F F F
0.018500 0.125711 0.016228 F F F
0.268823 0.125499 0.265804 F F F
0.518492 0.123626 0.515031 F F F
0.768700 0.625166 0.757626 F F F
0.020380 0.625605 0.016716 F F F
0.269425 0.125629 0.765807 F F F
0.517028 0.125136 0.014821 F F F
0.267234 0.625371 0.767013 F F F
0.517231 0.625897 0.019285 F F F
0.016794 0.875757 0.268565 F F F
0.267293 0.875629 0.520519 F F F
0.017590 0.375196 0.269381 F F F
0.016857 0.876173 0.769806 F F F
0.265300 0.875464 0.018802 F F F
0.516272 0.874302 0.272440 F F F
0.763411 0.875040 0.516359 F F F
0.016915 0.375785 0.769353 F F F
0.266172 0.375567 0.019524 F F F
0.759389 0.380006 0.526409 F F F
0.514738 0.875116 0.769408 F F F
0.765369 0.875774 0.018589 F F F
0.516325 0.374089 0.777046 F F F
0.764171 0.376734 0.017410 F F F
0.874077 0.981905 0.224449 F F F
0.124163 0.982103 0.474746 F F F
0.874556 0.483428 0.226735 F F F
0.128107 0.487444 0.480123 F F F
0.873855 0.982290 0.724591 F F F
0.123910 0.982382 0.974573 F F F
0.374144 0.981732 0.224982 F F F
0.623517 0.982536 0.474657 F F F
0.871504 0.483336 0.721498 F F F
0.123710 0.482065 0.974317 F F F
0.374190 0.482181 0.227782 F F F
0.374077 0.982582 0.724715 F F F
0.623801 0.983840 0.976265 F F F
0.624318 0.484064 0.976788 F F F
0.974623 0.018202 0.374193 F F F
0.224527 0.018258 0.623984 F F F
0.978389 0.514513 0.374956 F F F
0.228011 0.518258 0.624700 F F F
0.974640 0.018255 0.873978 F F F
0.224514 0.017928 0.124097 F F F
0.474543 0.017714 0.374809 F F F
0.724369 0.017695 0.624104 F F F
0.972902 0.518276 0.874200 F F F
0.224357 0.517832 0.124132 F F F
0.474522 0.017771 0.874004 F F F
0.725016 0.018316 0.124000 F F F
0.474217 0.517773 0.877378 F F F
0.726537 0.520412 0.122640 F F F
0.025701 0.767819 0.126095 F F F
0.275631 0.768023 0.376333 F F F
0.025479 0.268006 0.126182 F F F
0.024646 0.768302 0.626428 F F F
0.275439 0.768044 0.876105 F F F
0.524849 0.768578 0.127401 F F F
0.776762 0.772019 0.374181 F F F
0.025846 0.268293 0.626149 F F F
0.275096 0.267956 0.876161 F F F
0.525185 0.267680 0.126556 F F F
0.777968 0.266428 0.375632 F F F
0.527805 0.764362 0.627288 F F F
0.778759 0.768401 0.875345 F F F
0.775722 0.270270 0.875978 F F F
0.126392 0.231932 0.276007 F F F
0.376386 0.232505 0.524688 F F F
0.126197 0.732214 0.276389 F F F
0.125653 0.232075 0.775562 F F F
0.375946 0.232614 0.025747 F F F
0.626653 0.223802 0.269011 F F F
0.875687 0.235720 0.526219 F F F
0.126146 0.732721 0.775434 F F F
0.376030 0.732497 0.025858 F F F
0.876276 0.735864 0.522046 F F F
0.626192 0.232205 0.775633 F F F
0.875904 0.232442 0.025451 F F F
0.626529 0.739607 0.786768 F F F
0.875898 0.731986 0.025540 F F F
0.874076 0.767910 0.224920 F F F
0.125969 0.768289 0.475757 F F F
0.875248 0.266800 0.222787 F F F
0.124100 0.267625 0.474469 F F F
0.873696 0.768766 0.725388 F F F
0.123934 0.768142 0.974500 F F F
0.374299 0.768077 0.225428 F F F
0.623508 0.766057 0.472643 F F F
0.873615 0.271053 0.724558 F F F
0.123855 0.268208 0.974590 F F F
0.374277 0.267763 0.224995 F F F
0.374832 0.767669 0.725299 F F F
0.623805 0.768433 0.974826 F F F
0.623924 0.267064 0.975644 F F F
0.974498 0.232313 0.374184 F F F
0.225097 0.232523 0.623946 F F F
0.977580 0.735694 0.374350 F F F
0.224936 0.732074 0.624224 F F F
0.974575 0.232449 0.873969 F F F
0.224439 0.232485 0.124109 F F F
0.474923 0.232076 0.374683 F F F
0.723733 0.232746 0.623962 F F F
0.975171 0.732903 0.874089 F F F
0.224388 0.732473 0.124105 F F F
0.473629 0.231450 0.875258 F F F
0.725266 0.228229 0.123386 F F F
0.471976 0.732489 0.875553 F F F
0.725093 0.731870 0.123152 F F F
0.126157 0.018047 0.275743 F F F
0.376518 0.017789 0.525776 F F F
0.126291 0.519201 0.276798 F F F
0.126036 0.018407 0.775560 F F F
0.375882 0.017884 0.025713 F F F
0.626196 0.018172 0.275290 F F F
0.875879 0.017632 0.526039 F F F
0.124682 0.517843 0.774994 F F F
0.375829 0.517738 0.026074 F F F
0.872780 0.514750 0.522036 F F F
0.626106 0.018260 0.775635 F F F
0.876007 0.017812 0.025235 F F F
0.626736 0.517650 0.781131 F F F
0.875824 0.520152 0.025438 F F F
0.025380 0.982461 0.126124 F F F
0.275533 0.982106 0.376247 F F F
0.025354 0.482535 0.126100 F F F
0.025427 0.982156 0.626146 F F F
0.275351 0.982517 0.876060 F F F
0.525001 0.981498 0.126444 F F F
0.775731 0.983432 0.376198 F F F
0.024471 0.482507 0.627152 F F F
0.274902 0.482068 0.876467 F F F
0.524458 0.482453 0.129796 F F F
0.773070 0.477665 0.375501 F F F
0.525578 0.982081 0.625849 F F F
0.775536 0.982455 0.875991 F F F
0.777594 0.482960 0.871023 F F F
0.386190 0.375567 0.357019 F F F
0.629174 0.367212 0.603748 F F F
0.606307 0.624239 0.383105 F F F
0.353190 0.623749 0.638940 F F F
0.389226 0.374988 0.614590 F F F
0.650059 0.356110 0.346023 F F F
0.621526 0.636223 0.674290 F F F
0.359954 0.624559 0.392272 F F F
0.249858 0.250490 0.250169 F F F
0.499777 0.249465 0.499896 F F F
0.499501 0.248097 0.249508 F F F
0.249590 0.250021 0.499647 F F F
0.500060 0.500296 0.254040 F F F
0.253316 0.502154 0.500326 F F F
0.249690 0.499724 0.249883 F F F
0.513566 0.495597 0.504014 F F F
0.483217 0.624092 0.736216 F F F
0.742796 0.626122 0.462552 F F F
0.726170 0.376879 0.732473 F F F
0.482011 0.377480 0.488797 F F F
0.266923 0.625486 0.263416 F F F
0.513252 0.373735 0.268942 F F F
0.264420 0.376081 0.515612 F F F
0.374003 0.481693 0.728474 F F F
0.620261 0.459539 0.440550 F F F
0.478095 0.524908 0.380116 F F F
0.521313 0.263552 0.626628 F F F
0.275698 0.267975 0.376139 F F F
0.626150 0.732343 0.275480 F F F
0.378618 0.728563 0.525931 F F F
0.373973 0.268649 0.726962 F F F
0.623452 0.266735 0.472828 F F F
0.475604 0.728003 0.376630 F F F
0.728781 0.732686 0.622760 F F F
0.626473 0.517858 0.271740 F F F
0.386145 0.523822 0.522304 F F F
0.516139 0.468356 0.630565 F F F
0.275647 0.483176 0.376189 F F F
0.629320 0.556842 0.553097 T T T