Cs8 Pb8 Br23                            
   1.0000000000000000     
     8.4564889999999995    0.0000000000000000    8.0403009999999995
     0.0000000000000000   11.7298469999999995    0.0000000000000000
    -8.4564889999999995    0.0000000000000000    8.0403009999999995
   Cs   Pb   Br
     8     8    23
Direct
  0.2667420000000007  0.2495029999999971  0.1976280000000017
  0.7748920000000012  0.2469579999999993  0.7163719999999998
  0.7157600000000031  0.7533930000000026  0.2652849999999987
  0.2026570000000021  0.7536130000000014  0.7778229999999979
  0.2899900000000031  0.2415179999999992  0.7398549999999986
  0.7939020000000028  0.2462530000000029  0.2222220000000021
  0.7348410000000030  0.7507310000000018  0.8058049999999994
  0.2219359999999995  0.7577160000000021  0.2730030000000028
  0.9993169999999978  0.0010630000000020  0.9997759999999971
  0.4994560000000021  0.0066259999999971  0.4995430000000027
  0.5008839999999992  0.9991619999999983  0.0006720000000016
  0.0010729999999981  0.0009239999999977  0.5004020000000011
  0.5000629999999973  0.5004869999999997  0.0005510000000015
  0.9958099999999988  0.4992420000000024  0.5001320000000007
  0.0001189999999980  0.4993049999999997  0.0004580000000018
  0.5075969999999970  0.4922899999999970  0.4974860000000021
  0.4700479999999985  0.7495329999999996  0.9626030000000014
  0.9745800000000031  0.7490179999999995  0.4623410000000021
  0.9720340000000007  0.2504059999999981  0.9687410000000014
  0.4486449999999991  0.2519440000000017  0.4698679999999982
  0.0212429999999983  0.7500900000000001  0.0271639999999991
  0.5274250000000009  0.2498799999999974  0.0347640000000027
  0.0338350000000034  0.2520650000000018  0.5417440000000013
  0.2475609999999975  0.4713110000000000  0.9456739999999968
  0.7492439999999974  0.4633619999999965  0.4465000000000003
  0.4499679999999984  0.5406649999999971  0.2527189999999990
  0.9485960000000020  0.5343549999999979  0.7464330000000032
  0.5514409999999970  0.0305999999999997  0.7517160000000018
  0.0494600000000034  0.0358889999999974  0.2526749999999964
  0.7518809999999974  0.9694950000000020  0.0508850000000010
  0.2549539999999979  0.9597300000000004  0.5492210000000028
  0.2473710000000011  0.0253060000000005  0.9535989999999970
  0.7472050000000010  0.0363129999999998  0.4511579999999995
  0.4550589999999985  0.9622940000000000  0.2507209999999986
  0.9497799999999970  0.9664190000000019  0.7473639999999975
  0.7521959999999979  0.5294450000000026  0.0525250000000028
  0.5479109999999991  0.4666619999999995  0.7507499999999965
  0.0526709999999966  0.4673859999999976  0.2542040000000014
  0.3952620000000024  0.6452999999999989  0.5388680000000008

  0.00000000E+00  0.00000000E+00  0.00000000E+00
  0.00000000E+00  0.00000000E+00  0.00000000E+00
  0.00000000E+00  0.00000000E+00  0.00000000E+00
  0.00000000E+00  0.00000000E+00  0.00000000E+00
  0.00000000E+00  0.00000000E+00  0.00000000E+00
  0.00000000E+00  0.00000000E+00  0.00000000E+00
  0.00000000E+00  0.00000000E+00  0.00000000E+00
  0.00000000E+00  0.00000000E+00  0.00000000E+00
  0.00000000E+00  0.00000000E+00  0.00000000E+00
  0.00000000E+00  0.00000000E+00  0.00000000E+00
  0.00000000E+00  0.00000000E+00  0.00000000E+00
  0.00000000E+00  0.00000000E+00  0.00000000E+00
  0.00000000E+00  0.00000000E+00  0.00000000E+00
  0.00000000E+00  0.00000000E+00  0.00000000E+00
  0.00000000E+00  0.00000000E+00  0.00000000E+00
  0.00000000E+00  0.00000000E+00  0.00000000E+00
  0.00000000E+00  0.00000000E+00  0.00000000E+00
  0.00000000E+00  0.00000000E+00  0.00000000E+00
  0.00000000E+00  0.00000000E+00  0.00000000E+00
  0.00000000E+00  0.00000000E+00  0.00000000E+00
  0.00000000E+00  0.00000000E+00  0.00000000E+00
  0.00000000E+00  0.00000000E+00  0.00000000E+00
  0.00000000E+00  0.00000000E+00  0.00000000E+00
  0.00000000E+00  0.00000000E+00  0.00000000E+00
  0.00000000E+00  0.00000000E+00  0.00000000E+00
  0.00000000E+00  0.00000000E+00  0.00000000E+00
  0.00000000E+00  0.00000000E+00  0.00000000E+00
  0.00000000E+00  0.00000000E+00  0.00000000E+00
  0.00000000E+00  0.00000000E+00  0.00000000E+00
  0.00000000E+00  0.00000000E+00  0.00000000E+00
  0.00000000E+00  0.00000000E+00  0.00000000E+00
  0.00000000E+00  0.00000000E+00  0.00000000E+00
  0.00000000E+00  0.00000000E+00  0.00000000E+00
  0.00000000E+00  0.00000000E+00  0.00000000E+00
  0.00000000E+00  0.00000000E+00  0.00000000E+00
  0.00000000E+00  0.00000000E+00  0.00000000E+00
  0.00000000E+00  0.00000000E+00  0.00000000E+00
  0.00000000E+00  0.00000000E+00  0.00000000E+00
  0.00000000E+00  0.00000000E+00  0.00000000E+00
