Cs8 Pb8 Br23
1.0
8.456489 0.000000 8.040301
0.000000 11.729847 0.000000
-8.456489 0.000000 8.040301
Cs Pb Br
8 8 23
direct
0.266742 0.249503 0.197628 Cs
0.774892 0.246958 0.716372 Cs
0.715760 0.753393 0.265285 Cs
0.202657 0.753613 0.777823 Cs
0.289990 0.241518 0.739855 Cs
0.793902 0.246253 0.222222 Cs
0.734841 0.750731 0.805805 Cs
0.221936 0.757716 0.273003 Cs
-0.000683 0.001063 -0.000224 Pb
0.499456 0.006626 0.499543 Pb
0.500884 -0.000838 0.000672 Pb
0.001073 0.000924 0.500402 Pb
0.500063 0.500487 0.000551 Pb
-0.004190 0.499242 0.500132 Pb
0.000119 0.499305 0.000458 Pb
0.507597 0.492290 0.497486 Pb
0.470048 0.749533 0.962603 Br
0.974580 0.749018 0.462341 Br
0.972034 0.250406 0.968741 Br
0.448645 0.251944 0.469868 Br
0.021243 0.750090 0.027164 Br
0.527425 0.249880 0.034764 Br
0.033835 0.252065 0.541744 Br
0.247561 0.471311 0.945674 Br
0.749244 0.463362 0.446500 Br
0.449968 0.540665 0.252719 Br
0.948596 0.534355 0.746433 Br
0.551441 0.030600 0.751716 Br
0.049460 0.035889 0.252675 Br
0.751881 0.969495 0.050885 Br
0.254954 0.959730 0.549221 Br
0.247371 0.025306 0.953599 Br
0.747205 0.036313 0.451158 Br
0.455059 0.962294 0.250721 Br
0.949780 0.966419 0.747364 Br
0.752196 0.529445 0.052525 Br
0.547911 0.466662 0.750750 Br
0.052671 0.467386 0.254204 Br
0.395262 0.645300 0.538868 Br
